Ba Ti O
   1.0
    23.8282867332600006    0.0000000000000000    0.0000000000000000
     0.0000000000000000   23.8282867332600006    0.0000000000000000
     0.0000000000000000    0.0000000000000000   23.8282867332600006
 216  216  648
Direct
  0.0000000000000000  0.0000000000000000  0.0000000000000000
  0.1666666666666667  0.0000000000000000  0.0000000000000000
  0.3333333333333334  0.0000000000000000  0.0000000000000000
  0.5000000000000000  0.0000000000000000  0.0000000000000000
  0.6666666666666667  0.0000000000000000  0.0000000000000000
  0.8333333333333334  0.0000000000000000  0.0000000000000000
  0.0000000000000000  0.1666666666666667  0.0000000000000000
  0.1666666666666667  0.1666666666666667  0.0000000000000000
  0.3333333333333334  0.1666666666666667  0.0000000000000000
  0.5000000000000000  0.1666666666666667  0.0000000000000000
  0.6666666666666667  0.1666666666666667  0.0000000000000000
  0.8333333333333334  0.1666666666666667  0.0000000000000000
  0.0000000000000000  0.3333333333333334  0.0000000000000000
  0.1666666666666667  0.3333333333333334  0.0000000000000000
  0.3333333333333334  0.3333333333333334  0.0000000000000000
  0.5000000000000000  0.3333333333333334  0.0000000000000000
  0.6666666666666667  0.3333333333333334  0.0000000000000000
  0.8333333333333334  0.3333333333333334  0.0000000000000000
  0.0000000000000000  0.5000000000000000  0.0000000000000000
  0.1666666666666667  0.5000000000000000  0.0000000000000000
  0.3333333333333334  0.5000000000000000  0.0000000000000000
  0.5000000000000000  0.5000000000000000  0.0000000000000000
  0.6666666666666667  0.5000000000000000  0.0000000000000000
  0.8333333333333334  0.5000000000000000  0.0000000000000000
  0.0000000000000000  0.6666666666666667  0.0000000000000000
  0.1666666666666667  0.6666666666666667  0.0000000000000000
  0.3333333333333334  0.6666666666666667  0.0000000000000000
  0.5000000000000000  0.6666666666666667  0.0000000000000000
  0.6666666666666667  0.6666666666666667  0.0000000000000000
  0.8333333333333334  0.6666666666666667  0.0000000000000000
  0.0000000000000000  0.8333333333333334  0.0000000000000000
  0.1666666666666667  0.8333333333333334  0.0000000000000000
  0.3333333333333334  0.8333333333333334  0.0000000000000000
  0.5000000000000000  0.8333333333333334  0.0000000000000000
  0.6666666666666667  0.8333333333333334  0.0000000000000000
  0.8333333333333334  0.8333333333333334  0.0000000000000000
  0.0000000000000000  0.0000000000000000  0.1666666666666667
  0.1666666666666667  0.0000000000000000  0.1666666666666667
  0.3333333333333334  0.0000000000000000  0.1666666666666667
  0.5000000000000000  0.0000000000000000  0.1666666666666667
  0.6666666666666667  0.0000000000000000  0.1666666666666667
  0.8333333333333334  0.0000000000000000  0.1666666666666667
  0.0000000000000000  0.1666666666666667  0.1666666666666667
  0.1666666666666667  0.1666666666666667  0.1666666666666667
  0.3333333333333334  0.1666666666666667  0.1666666666666667
  0.5000000000000000  0.1666666666666667  0.1666666666666667
  0.6666666666666667  0.1666666666666667  0.1666666666666667
  0.8333333333333334  0.1666666666666667  0.1666666666666667
  0.0000000000000000  0.3333333333333334  0.1666666666666667
  0.1666666666666667  0.3333333333333334  0.1666666666666667
  0.3333333333333334  0.3333333333333334  0.1666666666666667
  0.5000000000000000  0.3333333333333334  0.1666666666666667
  0.6666666666666667  0.3333333333333334  0.1666666666666667
  0.8333333333333334  0.3333333333333334  0.1666666666666667
  0.0000000000000000  0.5000000000000000  0.1666666666666667
  0.1666666666666667  0.5000000000000000  0.1666666666666667
  0.3333333333333334  0.5000000000000000  0.1666666666666667
  0.5000000000000000  0.5000000000000000  0.1666666666666667
  0.6666666666666667  0.5000000000000000  0.1666666666666667
  0.8333333333333334  0.5000000000000000  0.1666666666666667
  0.0000000000000000  0.6666666666666667  0.1666666666666667
  0.1666666666666667  0.6666666666666667  0.1666666666666667
  0.3333333333333334  0.6666666666666667  0.1666666666666667
  0.5000000000000000  0.6666666666666667  0.1666666666666667
  0.6666666666666667  0.6666666666666667  0.1666666666666667
  0.8333333333333334  0.6666666666666667  0.1666666666666667
  0.0000000000000000  0.8333333333333334  0.1666666666666667
  0.1666666666666667  0.8333333333333334  0.1666666666666667
  0.3333333333333334  0.8333333333333334  0.1666666666666667
  0.5000000000000000  0.8333333333333334  0.1666666666666667
  0.6666666666666667  0.8333333333333334  0.1666666666666667
  0.8333333333333334  0.8333333333333334  0.1666666666666667
  0.0000000000000000  0.0000000000000000  0.3333333333333334
  0.1666666666666667  0.0000000000000000  0.3333333333333334
  0.3333333333333334  0.0000000000000000  0.3333333333333334
  0.5000000000000000  0.0000000000000000  0.3333333333333334
  0.6666666666666667  0.0000000000000000  0.3333333333333334
  0.8333333333333334  0.0000000000000000  0.3333333333333334
  0.0000000000000000  0.1666666666666667  0.3333333333333334
  0.1666666666666667  0.1666666666666667  0.3333333333333334
  0.3333333333333334  0.1666666666666667  0.3333333333333334
  0.5000000000000000  0.1666666666666667  0.3333333333333334
  0.6666666666666667  0.1666666666666667  0.3333333333333334
  0.8333333333333334  0.1666666666666667  0.3333333333333334
  0.0000000000000000  0.3333333333333334  0.3333333333333334
  0.1666666666666667  0.3333333333333334  0.3333333333333334
  0.3333333333333334  0.3333333333333334  0.3333333333333334
  0.5000000000000000  0.3333333333333334  0.3333333333333334
  0.6666666666666667  0.3333333333333334  0.3333333333333334
  0.8333333333333334  0.3333333333333334  0.3333333333333334
  0.0000000000000000  0.5000000000000000  0.3333333333333334
  0.1666666666666667  0.5000000000000000  0.3333333333333334
  0.3333333333333334  0.5000000000000000  0.3333333333333334
  0.5000000000000000  0.5000000000000000  0.3333333333333334
  0.6666666666666667  0.5000000000000000  0.3333333333333334
  0.8333333333333334  0.5000000000000000  0.3333333333333334
  0.0000000000000000  0.6666666666666667  0.3333333333333334
  0.1666666666666667  0.6666666666666667  0.3333333333333334
  0.3333333333333334  0.6666666666666667  0.3333333333333334
  0.5000000000000000  0.6666666666666667  0.3333333333333334
  0.6666666666666667  0.6666666666666667  0.3333333333333334
  0.8333333333333334  0.6666666666666667  0.3333333333333334
  0.0000000000000000  0.8333333333333334  0.3333333333333334
  0.1666666666666667  0.8333333333333334  0.3333333333333334
  0.3333333333333334  0.8333333333333334  0.3333333333333334
  0.5000000000000000  0.8333333333333334  0.3333333333333334
  0.6666666666666667  0.8333333333333334  0.3333333333333334
  0.8333333333333334  0.8333333333333334  0.3333333333333334
  0.0000000000000000  0.0000000000000000  0.5000000000000000
  0.1666666666666667  0.0000000000000000  0.5000000000000000
  0.3333333333333334  0.0000000000000000  0.5000000000000000
  0.5000000000000000  0.0000000000000000  0.5000000000000000
  0.6666666666666667  0.0000000000000000  0.5000000000000000
  0.8333333333333334  0.0000000000000000  0.5000000000000000
  0.0000000000000000  0.1666666666666667  0.5000000000000000
  0.1666666666666667  0.1666666666666667  0.5000000000000000
  0.3333333333333334  0.1666666666666667  0.5000000000000000
  0.5000000000000000  0.1666666666666667  0.5000000000000000
  0.6666666666666667  0.1666666666666667  0.5000000000000000
  0.8333333333333334  0.1666666666666667  0.5000000000000000
  0.0000000000000000  0.3333333333333334  0.5000000000000000
  0.1666666666666667  0.3333333333333334  0.5000000000000000
  0.3333333333333334  0.3333333333333334  0.5000000000000000
  0.5000000000000000  0.3333333333333334  0.5000000000000000
  0.6666666666666667  0.3333333333333334  0.5000000000000000
  0.8333333333333334  0.3333333333333334  0.5000000000000000
  0.0000000000000000  0.5000000000000000  0.5000000000000000
  0.1666666666666667  0.5000000000000000  0.5000000000000000
  0.3333333333333334  0.5000000000000000  0.5000000000000000
  0.5000000000000000  0.5000000000000000  0.5000000000000000
  0.6666666666666667  0.5000000000000000  0.5000000000000000
  0.8333333333333334  0.5000000000000000  0.5000000000000000
  0.0000000000000000  0.6666666666666667  0.5000000000000000
  0.1666666666666667  0.6666666666666667  0.5000000000000000
  0.3333333333333334  0.6666666666666667  0.5000000000000000
  0.5000000000000000  0.6666666666666667  0.5000000000000000
  0.6666666666666667  0.6666666666666667  0.5000000000000000
  0.8333333333333334  0.6666666666666667  0.5000000000000000
  0.0000000000000000  0.8333333333333334  0.5000000000000000
  0.1666666666666667  0.8333333333333334  0.5000000000000000
  0.3333333333333334  0.8333333333333334  0.5000000000000000
  0.5000000000000000  0.8333333333333334  0.5000000000000000
  0.6666666666666667  0.8333333333333334  0.5000000000000000
  0.8333333333333334  0.8333333333333334  0.5000000000000000
  0.0000000000000000  0.0000000000000000  0.6666666666666667
  0.1666666666666667  0.0000000000000000  0.6666666666666667
  0.3333333333333334  0.0000000000000000  0.6666666666666667
  0.5000000000000000  0.0000000000000000  0.6666666666666667
  0.6666666666666667  0.0000000000000000  0.6666666666666667
  0.8333333333333334  0.0000000000000000  0.6666666666666667
  0.0000000000000000  0.1666666666666667  0.6666666666666667
  0.1666666666666667  0.1666666666666667  0.6666666666666667
  0.3333333333333334  0.1666666666666667  0.6666666666666667
  0.5000000000000000  0.1666666666666667  0.6666666666666667
  0.6666666666666667  0.1666666666666667  0.6666666666666667
  0.8333333333333334  0.1666666666666667  0.6666666666666667
  0.0000000000000000  0.3333333333333334  0.6666666666666667
  0.1666666666666667  0.3333333333333334  0.6666666666666667
  0.3333333333333334  0.3333333333333334  0.6666666666666667
  0.5000000000000000  0.3333333333333334  0.6666666666666667
  0.6666666666666667  0.3333333333333334  0.6666666666666667
  0.8333333333333334  0.3333333333333334  0.6666666666666667
  0.0000000000000000  0.5000000000000000  0.6666666666666667
  0.1666666666666667  0.5000000000000000  0.6666666666666667
  0.3333333333333334  0.5000000000000000  0.6666666666666667
  0.5000000000000000  0.5000000000000000  0.6666666666666667
  0.6666666666666667  0.5000000000000000  0.6666666666666667
  0.8333333333333334  0.5000000000000000  0.6666666666666667
  0.0000000000000000  0.6666666666666667  0.6666666666666667
  0.1666666666666667  0.6666666666666667  0.6666666666666667
  0.3333333333333334  0.6666666666666667  0.6666666666666667
  0.5000000000000000  0.6666666666666667  0.6666666666666667
  0.6666666666666667  0.6666666666666667  0.6666666666666667
  0.8333333333333334  0.6666666666666667  0.6666666666666667
  0.0000000000000000  0.8333333333333334  0.6666666666666667
  0.1666666666666667  0.8333333333333334  0.6666666666666667
  0.3333333333333334  0.8333333333333334  0.6666666666666667
  0.5000000000000000  0.8333333333333334  0.6666666666666667
  0.6666666666666667  0.8333333333333334  0.6666666666666667
  0.8333333333333334  0.8333333333333334  0.6666666666666667
  0.0000000000000000  0.0000000000000000  0.8333333333333334
  0.1666666666666667  0.0000000000000000  0.8333333333333334
  0.3333333333333334  0.0000000000000000  0.8333333333333334
  0.5000000000000000  0.0000000000000000  0.8333333333333334
  0.6666666666666667  0.0000000000000000  0.8333333333333334
  0.8333333333333334  0.0000000000000000  0.8333333333333334
  0.0000000000000000  0.1666666666666667  0.8333333333333334
  0.1666666666666667  0.1666666666666667  0.8333333333333334
  0.3333333333333334  0.1666666666666667  0.8333333333333334
  0.5000000000000000  0.1666666666666667  0.8333333333333334
  0.6666666666666667  0.1666666666666667  0.8333333333333334
  0.8333333333333334  0.1666666666666667  0.8333333333333334
  0.0000000000000000  0.3333333333333334  0.8333333333333334
  0.1666666666666667  0.3333333333333334  0.8333333333333334
  0.3333333333333334  0.3333333333333334  0.8333333333333334
  0.5000000000000000  0.3333333333333334  0.8333333333333334
  0.6666666666666667  0.3333333333333334  0.8333333333333334
  0.8333333333333334  0.3333333333333334  0.8333333333333334
  0.0000000000000000  0.5000000000000000  0.8333333333333334
  0.1666666666666667  0.5000000000000000  0.8333333333333334
  0.3333333333333334  0.5000000000000000  0.8333333333333334
  0.5000000000000000  0.5000000000000000  0.8333333333333334
  0.6666666666666667  0.5000000000000000  0.8333333333333334
  0.8333333333333334  0.5000000000000000  0.8333333333333334
  0.0000000000000000  0.6666666666666667  0.8333333333333334
  0.1666666666666667  0.6666666666666667  0.8333333333333334
  0.3333333333333334  0.6666666666666667  0.8333333333333334
  0.5000000000000000  0.6666666666666667  0.8333333333333334
  0.6666666666666667  0.6666666666666667  0.8333333333333334
  0.8333333333333334  0.6666666666666667  0.8333333333333334
  0.0000000000000000  0.8333333333333334  0.8333333333333334
  0.1666666666666667  0.8333333333333334  0.8333333333333334
  0.3333333333333334  0.8333333333333334  0.8333333333333334
  0.5000000000000000  0.8333333333333334  0.8333333333333334
  0.6666666666666667  0.8333333333333334  0.8333333333333334
  0.8333333333333334  0.8333333333333334  0.8333333333333334
  0.0837530026159781  0.0833333333333333  0.0833333333333333
  0.2500000000000000  0.0833333333333333  0.0833333333333333
  0.4166666666666667  0.0833333333333333  0.0833333333333333
  0.5833333333333334  0.0833333333333333  0.0833333333333333
  0.7500000000000001  0.0833333333333333  0.0833333333333333
  0.9166666666666666  0.0833333333333333  0.0833333333333333
  0.0833333333333333  0.2500000000000000  0.0833333333333333
  0.2500000000000000  0.2500000000000000  0.0833333333333333
  0.4166666666666667  0.2500000000000000  0.0833333333333333
  0.5833333333333334  0.2500000000000000  0.0833333333333333
  0.7500000000000001  0.2500000000000000  0.0833333333333333
  0.9166666666666666  0.2500000000000000  0.0833333333333333
  0.0833333333333333  0.4166666666666667  0.0833333333333333
  0.2500000000000000  0.4166666666666667  0.0833333333333333
  0.4166666666666667  0.4166666666666667  0.0833333333333333
  0.5833333333333334  0.4166666666666667  0.0833333333333333
  0.7500000000000001  0.4166666666666667  0.0833333333333333
  0.9166666666666666  0.4166666666666667  0.0833333333333333
  0.0833333333333333  0.5833333333333334  0.0833333333333333
  0.2500000000000000  0.5833333333333334  0.0833333333333333
  0.4166666666666667  0.5833333333333334  0.0833333333333333
  0.5833333333333334  0.5833333333333334  0.0833333333333333
  0.7500000000000001  0.5833333333333334  0.0833333333333333
  0.9166666666666666  0.5833333333333334  0.0833333333333333
  0.0833333333333333  0.7500000000000001  0.0833333333333333
  0.2500000000000000  0.7500000000000001  0.0833333333333333
  0.4166666666666667  0.7500000000000001  0.0833333333333333
  0.5833333333333334  0.7500000000000001  0.0833333333333333
  0.7500000000000001  0.7500000000000001  0.0833333333333333
  0.9166666666666666  0.7500000000000001  0.0833333333333333
  0.0833333333333333  0.9166666666666666  0.0833333333333333
  0.2500000000000000  0.9166666666666666  0.0833333333333333
  0.4166666666666667  0.9166666666666666  0.0833333333333333
  0.5833333333333334  0.9166666666666666  0.0833333333333333
  0.7500000000000001  0.9166666666666666  0.0833333333333333
  0.9166666666666666  0.9166666666666666  0.0833333333333333
  0.0833333333333333  0.0833333333333333  0.2500000000000000
  0.2500000000000000  0.0833333333333333  0.2500000000000000
  0.4166666666666667  0.0833333333333333  0.2500000000000000
  0.5833333333333334  0.0833333333333333  0.2500000000000000
  0.7500000000000001  0.0833333333333333  0.2500000000000000
  0.9166666666666666  0.0833333333333333  0.2500000000000000
  0.0833333333333333  0.2500000000000000  0.2500000000000000
  0.2500000000000000  0.2500000000000000  0.2500000000000000
  0.4166666666666667  0.2500000000000000  0.2500000000000000
  0.5833333333333334  0.2500000000000000  0.2500000000000000
  0.7500000000000001  0.2500000000000000  0.2500000000000000
  0.9166666666666666  0.2500000000000000  0.2500000000000000
  0.0833333333333333  0.4166666666666667  0.2500000000000000
  0.2500000000000000  0.4166666666666667  0.2500000000000000
  0.4166666666666667  0.4166666666666667  0.2500000000000000
  0.5833333333333334  0.4166666666666667  0.2500000000000000
  0.7500000000000001  0.4166666666666667  0.2500000000000000
  0.9166666666666666  0.4166666666666667  0.2500000000000000
  0.0833333333333333  0.5833333333333334  0.2500000000000000
  0.2500000000000000  0.5833333333333334  0.2500000000000000
  0.4166666666666667  0.5833333333333334  0.2500000000000000
  0.5833333333333334  0.5833333333333334  0.2500000000000000
  0.7500000000000001  0.5833333333333334  0.2500000000000000
  0.9166666666666666  0.5833333333333334  0.2500000000000000
  0.0833333333333333  0.7500000000000001  0.2500000000000000
  0.2500000000000000  0.7500000000000001  0.2500000000000000
  0.4166666666666667  0.7500000000000001  0.2500000000000000
  0.5833333333333334  0.7500000000000001  0.2500000000000000
  0.7500000000000001  0.7500000000000001  0.2500000000000000
  0.9166666666666666  0.7500000000000001  0.2500000000000000
  0.0833333333333333  0.9166666666666666  0.2500000000000000
  0.2500000000000000  0.9166666666666666  0.2500000000000000
  0.4166666666666667  0.9166666666666666  0.2500000000000000
  0.5833333333333334  0.9166666666666666  0.2500000000000000
  0.7500000000000001  0.9166666666666666  0.2500000000000000
  0.9166666666666666  0.9166666666666666  0.2500000000000000
  0.0833333333333333  0.0833333333333333  0.4166666666666667
  0.2500000000000000  0.0833333333333333  0.4166666666666667
  0.4166666666666667  0.0833333333333333  0.4166666666666667
  0.5833333333333334  0.0833333333333333  0.4166666666666667
  0.7500000000000001  0.0833333333333333  0.4166666666666667
  0.9166666666666666  0.0833333333333333  0.4166666666666667
  0.0833333333333333  0.2500000000000000  0.4166666666666667
  0.2500000000000000  0.2500000000000000  0.4166666666666667
  0.4166666666666667  0.2500000000000000  0.4166666666666667
  0.5833333333333334  0.2500000000000000  0.4166666666666667
  0.7500000000000001  0.2500000000000000  0.4166666666666667
  0.9166666666666666  0.2500000000000000  0.4166666666666667
  0.0833333333333333  0.4166666666666667  0.4166666666666667
  0.2500000000000000  0.4166666666666667  0.4166666666666667
  0.4166666666666667  0.4166666666666667  0.4166666666666667
  0.5833333333333334  0.4166666666666667  0.4166666666666667
  0.7500000000000001  0.4166666666666667  0.4166666666666667
  0.9166666666666666  0.4166666666666667  0.4166666666666667
  0.0833333333333333  0.5833333333333334  0.4166666666666667
  0.2500000000000000  0.5833333333333334  0.4166666666666667
  0.4166666666666667  0.5833333333333334  0.4166666666666667
  0.5833333333333334  0.5833333333333334  0.4166666666666667
  0.7500000000000001  0.5833333333333334  0.4166666666666667
  0.9166666666666666  0.5833333333333334  0.4166666666666667
  0.0833333333333333  0.7500000000000001  0.4166666666666667
  0.2500000000000000  0.7500000000000001  0.4166666666666667
  0.4166666666666667  0.7500000000000001  0.4166666666666667
  0.5833333333333334  0.7500000000000001  0.4166666666666667
  0.7500000000000001  0.7500000000000001  0.4166666666666667
  0.9166666666666666  0.7500000000000001  0.4166666666666667
  0.0833333333333333  0.9166666666666666  0.4166666666666667
  0.2500000000000000  0.9166666666666666  0.4166666666666667
  0.4166666666666667  0.9166666666666666  0.4166666666666667
  0.5833333333333334  0.9166666666666666  0.4166666666666667
  0.7500000000000001  0.9166666666666666  0.4166666666666667
  0.9166666666666666  0.9166666666666666  0.4166666666666667
  0.0833333333333333  0.0833333333333333  0.5833333333333334
  0.2500000000000000  0.0833333333333333  0.5833333333333334
  0.4166666666666667  0.0833333333333333  0.5833333333333334
  0.5833333333333334  0.0833333333333333  0.5833333333333334
  0.7500000000000001  0.0833333333333333  0.5833333333333334
  0.9166666666666666  0.0833333333333333  0.5833333333333334
  0.0833333333333333  0.2500000000000000  0.5833333333333334
  0.2500000000000000  0.2500000000000000  0.5833333333333334
  0.4166666666666667  0.2500000000000000  0.5833333333333334
  0.5833333333333334  0.2500000000000000  0.5833333333333334
  0.7500000000000001  0.2500000000000000  0.5833333333333334
  0.9166666666666666  0.2500000000000000  0.5833333333333334
  0.0833333333333333  0.4166666666666667  0.5833333333333334
  0.2500000000000000  0.4166666666666667  0.5833333333333334
  0.4166666666666667  0.4166666666666667  0.5833333333333334
  0.5833333333333334  0.4166666666666667  0.5833333333333334
  0.7500000000000001  0.4166666666666667  0.5833333333333334
  0.9166666666666666  0.4166666666666667  0.5833333333333334
  0.0833333333333333  0.5833333333333334  0.5833333333333334
  0.2500000000000000  0.5833333333333334  0.5833333333333334
  0.4166666666666667  0.5833333333333334  0.5833333333333334
  0.5833333333333334  0.5833333333333334  0.5833333333333334
  0.7500000000000001  0.5833333333333334  0.5833333333333334
  0.9166666666666666  0.5833333333333334  0.5833333333333334
  0.0833333333333333  0.7500000000000001  0.5833333333333334
  0.2500000000000000  0.7500000000000001  0.5833333333333334
  0.4166666666666667  0.7500000000000001  0.5833333333333334
  0.5833333333333334  0.7500000000000001  0.5833333333333334
  0.7500000000000001  0.7500000000000001  0.5833333333333334
  0.9166666666666666  0.7500000000000001  0.5833333333333334
  0.0833333333333333  0.9166666666666666  0.5833333333333334
  0.2500000000000000  0.9166666666666666  0.5833333333333334
  0.4166666666666667  0.9166666666666666  0.5833333333333334
  0.5833333333333334  0.9166666666666666  0.5833333333333334
  0.7500000000000001  0.9166666666666666  0.5833333333333334
  0.9166666666666666  0.9166666666666666  0.5833333333333334
  0.0833333333333333  0.0833333333333333  0.7500000000000001
  0.2500000000000000  0.0833333333333333  0.7500000000000001
  0.4166666666666667  0.0833333333333333  0.7500000000000001
  0.5833333333333334  0.0833333333333333  0.7500000000000001
  0.7500000000000001  0.0833333333333333  0.7500000000000001
  0.9166666666666666  0.0833333333333333  0.7500000000000001
  0.0833333333333333  0.2500000000000000  0.7500000000000001
  0.2500000000000000  0.2500000000000000  0.7500000000000001
  0.4166666666666667  0.2500000000000000  0.7500000000000001
  0.5833333333333334  0.2500000000000000  0.7500000000000001
  0.7500000000000001  0.2500000000000000  0.7500000000000001
  0.9166666666666666  0.2500000000000000  0.7500000000000001
  0.0833333333333333  0.4166666666666667  0.7500000000000001
  0.2500000000000000  0.4166666666666667  0.7500000000000001
  0.4166666666666667  0.4166666666666667  0.7500000000000001
  0.5833333333333334  0.4166666666666667  0.7500000000000001
  0.7500000000000001  0.4166666666666667  0.7500000000000001
  0.9166666666666666  0.4166666666666667  0.7500000000000001
  0.0833333333333333  0.5833333333333334  0.7500000000000001
  0.2500000000000000  0.5833333333333334  0.7500000000000001
  0.4166666666666667  0.5833333333333334  0.7500000000000001
  0.5833333333333334  0.5833333333333334  0.7500000000000001
  0.7500000000000001  0.5833333333333334  0.7500000000000001
  0.9166666666666666  0.5833333333333334  0.7500000000000001
  0.0833333333333333  0.7500000000000001  0.7500000000000001
  0.2500000000000000  0.7500000000000001  0.7500000000000001
  0.4166666666666667  0.7500000000000001  0.7500000000000001
  0.5833333333333334  0.7500000000000001  0.7500000000000001
  0.7500000000000001  0.7500000000000001  0.7500000000000001
  0.9166666666666666  0.7500000000000001  0.7500000000000001
  0.0833333333333333  0.9166666666666666  0.7500000000000001
  0.2500000000000000  0.9166666666666666  0.7500000000000001
  0.4166666666666667  0.9166666666666666  0.7500000000000001
  0.5833333333333334  0.9166666666666666  0.7500000000000001
  0.7500000000000001  0.9166666666666666  0.7500000000000001
  0.9166666666666666  0.9166666666666666  0.7500000000000001
  0.0833333333333333  0.0833333333333333  0.9166666666666666
  0.2500000000000000  0.0833333333333333  0.9166666666666666
  0.4166666666666667  0.0833333333333333  0.9166666666666666
  0.5833333333333334  0.0833333333333333  0.9166666666666666
  0.7500000000000001  0.0833333333333333  0.9166666666666666
  0.9166666666666666  0.0833333333333333  0.9166666666666666
  0.0833333333333333  0.2500000000000000  0.9166666666666666
  0.2500000000000000  0.2500000000000000  0.9166666666666666
  0.4166666666666667  0.2500000000000000  0.9166666666666666
  0.5833333333333334  0.2500000000000000  0.9166666666666666
  0.7500000000000001  0.2500000000000000  0.9166666666666666
  0.9166666666666666  0.2500000000000000  0.9166666666666666
  0.0833333333333333  0.4166666666666667  0.9166666666666666
  0.2500000000000000  0.4166666666666667  0.9166666666666666
  0.4166666666666667  0.4166666666666667  0.9166666666666666
  0.5833333333333334  0.4166666666666667  0.9166666666666666
  0.7500000000000001  0.4166666666666667  0.9166666666666666
  0.9166666666666666  0.4166666666666667  0.9166666666666666
  0.0833333333333333  0.5833333333333334  0.9166666666666666
  0.2500000000000000  0.5833333333333334  0.9166666666666666
  0.4166666666666667  0.5833333333333334  0.9166666666666666
  0.5833333333333334  0.5833333333333334  0.9166666666666666
  0.7500000000000001  0.5833333333333334  0.9166666666666666
  0.9166666666666666  0.5833333333333334  0.9166666666666666
  0.0833333333333333  0.7500000000000001  0.9166666666666666
  0.2500000000000000  0.7500000000000001  0.9166666666666666
  0.4166666666666667  0.7500000000000001  0.9166666666666666
  0.5833333333333334  0.7500000000000001  0.9166666666666666
  0.7500000000000001  0.7500000000000001  0.9166666666666666
  0.9166666666666666  0.7500000000000001  0.9166666666666666
  0.0833333333333333  0.9166666666666666  0.9166666666666666
  0.2500000000000000  0.9166666666666666  0.9166666666666666
  0.4166666666666667  0.9166666666666666  0.9166666666666666
  0.5833333333333334  0.9166666666666666  0.9166666666666666
  0.7500000000000001  0.9166666666666666  0.9166666666666666
  0.9166666666666666  0.9166666666666666  0.9166666666666666
  0.0833333333333333  0.0833333333333333  0.0000000000000000
  0.2500000000000000  0.0833333333333333  0.0000000000000000
  0.4166666666666667  0.0833333333333333  0.0000000000000000
  0.5833333333333334  0.0833333333333333  0.0000000000000000
  0.7500000000000001  0.0833333333333333  0.0000000000000000
  0.9166666666666666  0.0833333333333333  0.0000000000000000
  0.0833333333333333  0.2500000000000000  0.0000000000000000
  0.2500000000000000  0.2500000000000000  0.0000000000000000
  0.4166666666666667  0.2500000000000000  0.0000000000000000
  0.5833333333333334  0.2500000000000000  0.0000000000000000
  0.7500000000000001  0.2500000000000000  0.0000000000000000
  0.9166666666666666  0.2500000000000000  0.0000000000000000
  0.0833333333333333  0.4166666666666667  0.0000000000000000
  0.2500000000000000  0.4166666666666667  0.0000000000000000
  0.4166666666666667  0.4166666666666667  0.0000000000000000
  0.5833333333333334  0.4166666666666667  0.0000000000000000
  0.7500000000000001  0.4166666666666667  0.0000000000000000
  0.9166666666666666  0.4166666666666667  0.0000000000000000
  0.0833333333333333  0.5833333333333334  0.0000000000000000
  0.2500000000000000  0.5833333333333334  0.0000000000000000
  0.4166666666666667  0.5833333333333334  0.0000000000000000
  0.5833333333333334  0.5833333333333334  0.0000000000000000
  0.7500000000000001  0.5833333333333334  0.0000000000000000
  0.9166666666666666  0.5833333333333334  0.0000000000000000
  0.0833333333333333  0.7500000000000001  0.0000000000000000
  0.2500000000000000  0.7500000000000001  0.0000000000000000
  0.4166666666666667  0.7500000000000001  0.0000000000000000
  0.5833333333333334  0.7500000000000001  0.0000000000000000
  0.7500000000000001  0.7500000000000001  0.0000000000000000
  0.9166666666666666  0.7500000000000001  0.0000000000000000
  0.0833333333333333  0.9166666666666666  0.0000000000000000
  0.2500000000000000  0.9166666666666666  0.0000000000000000
  0.4166666666666667  0.9166666666666666  0.0000000000000000
  0.5833333333333334  0.9166666666666666  0.0000000000000000
  0.7500000000000001  0.9166666666666666  0.0000000000000000
  0.9166666666666666  0.9166666666666666  0.0000000000000000
  0.0833333333333333  0.0833333333333333  0.1666666666666667
  0.2500000000000000  0.0833333333333333  0.1666666666666667
  0.4166666666666667  0.0833333333333333  0.1666666666666667
  0.5833333333333334  0.0833333333333333  0.1666666666666667
  0.7500000000000001  0.0833333333333333  0.1666666666666667
  0.9166666666666666  0.0833333333333333  0.1666666666666667
  0.0833333333333333  0.2500000000000000  0.1666666666666667
  0.2500000000000000  0.2500000000000000  0.1666666666666667
  0.4166666666666667  0.2500000000000000  0.1666666666666667
  0.5833333333333334  0.2500000000000000  0.1666666666666667
  0.7500000000000001  0.2500000000000000  0.1666666666666667
  0.9166666666666666  0.2500000000000000  0.1666666666666667
  0.0833333333333333  0.4166666666666667  0.1666666666666667
  0.2500000000000000  0.4166666666666667  0.1666666666666667
  0.4166666666666667  0.4166666666666667  0.1666666666666667
  0.5833333333333334  0.4166666666666667  0.1666666666666667
  0.7500000000000001  0.4166666666666667  0.1666666666666667
  0.9166666666666666  0.4166666666666667  0.1666666666666667
  0.0833333333333333  0.5833333333333334  0.1666666666666667