Ba Ti O
   1.0
    19.8569056110499993    0.0000000000000000    0.0000000000000000
     0.0000000000000000   19.8569056110499993    0.0000000000000000
     0.0000000000000000    0.0000000000000000   19.8569056110499993
 125  125  375
Direct
  0.0005036031391737  0.0000000000000000  0.0000000000000000
  0.2000000000000000  0.0000000000000000  0.0000000000000000
  0.4000000000000000  0.0000000000000000  0.0000000000000000
  0.6000000000000001  0.0000000000000000  0.0000000000000000
  0.8000000000000000  0.0000000000000000  0.0000000000000000
  0.0000000000000000  0.2000000000000000  0.0000000000000000
  0.2000000000000000  0.2000000000000000  0.0000000000000000
  0.4000000000000000  0.2000000000000000  0.0000000000000000
  0.6000000000000001  0.2000000000000000  0.0000000000000000
  0.8000000000000000  0.2000000000000000  0.0000000000000000
  0.0000000000000000  0.4000000000000000  0.0000000000000000
  0.2000000000000000  0.4000000000000000  0.0000000000000000
  0.4000000000000000  0.4000000000000000  0.0000000000000000
  0.6000000000000001  0.4000000000000000  0.0000000000000000
  0.8000000000000000  0.4000000000000000  0.0000000000000000
  0.0000000000000000  0.6000000000000001  0.0000000000000000
  0.2000000000000000  0.6000000000000001  0.0000000000000000
  0.4000000000000000  0.6000000000000001  0.0000000000000000
  0.6000000000000001  0.6000000000000001  0.0000000000000000
  0.8000000000000000  0.6000000000000001  0.0000000000000000
  0.0000000000000000  0.8000000000000000  0.0000000000000000
  0.2000000000000000  0.8000000000000000  0.0000000000000000
  0.4000000000000000  0.8000000000000000  0.0000000000000000
  0.6000000000000001  0.8000000000000000  0.0000000000000000
  0.8000000000000000  0.8000000000000000  0.0000000000000000
  0.0000000000000000  0.0000000000000000  0.2000000000000000
  0.2000000000000000  0.0000000000000000  0.2000000000000000
  0.4000000000000000  0.0000000000000000  0.2000000000000000
  0.6000000000000001  0.0000000000000000  0.2000000000000000
  0.8000000000000000  0.0000000000000000  0.2000000000000000
  0.0000000000000000  0.2000000000000000  0.2000000000000000
  0.2000000000000000  0.2000000000000000  0.2000000000000000
  0.4000000000000000  0.2000000000000000  0.2000000000000000
  0.6000000000000001  0.2000000000000000  0.2000000000000000
  0.8000000000000000  0.2000000000000000  0.2000000000000000
  0.0000000000000000  0.4000000000000000  0.2000000000000000
  0.2000000000000000  0.4000000000000000  0.2000000000000000
  0.4000000000000000  0.4000000000000000  0.2000000000000000
  0.6000000000000001  0.4000000000000000  0.2000000000000000
  0.8000000000000000  0.4000000000000000  0.2000000000000000
  0.0000000000000000  0.6000000000000001  0.2000000000000000
  0.2000000000000000  0.6000000000000001  0.2000000000000000
  0.4000000000000000  0.6000000000000001  0.2000000000000000
  0.6000000000000001  0.6000000000000001  0.2000000000000000
  0.8000000000000000  0.6000000000000001  0.2000000000000000
  0.0000000000000000  0.8000000000000000  0.2000000000000000
  0.2000000000000000  0.8000000000000000  0.2000000000000000
  0.4000000000000000  0.8000000000000000  0.2000000000000000
  0.6000000000000001  0.8000000000000000  0.2000000000000000
  0.8000000000000000  0.8000000000000000  0.2000000000000000
  0.0000000000000000  0.0000000000000000  0.4000000000000000
  0.2000000000000000  0.0000000000000000  0.4000000000000000
  0.4000000000000000  0.0000000000000000  0.4000000000000000
  0.6000000000000001  0.0000000000000000  0.4000000000000000
  0.8000000000000000  0.0000000000000000  0.4000000000000000
  0.0000000000000000  0.2000000000000000  0.4000000000000000
  0.2000000000000000  0.2000000000000000  0.4000000000000000
  0.4000000000000000  0.2000000000000000  0.4000000000000000
  0.6000000000000001  0.2000000000000000  0.4000000000000000
  0.8000000000000000  0.2000000000000000  0.4000000000000000
  0.0000000000000000  0.4000000000000000  0.4000000000000000
  0.2000000000000000  0.4000000000000000  0.4000000000000000
  0.4000000000000000  0.4000000000000000  0.4000000000000000
  0.6000000000000001  0.4000000000000000  0.4000000000000000
  0.8000000000000000  0.4000000000000000  0.4000000000000000
  0.0000000000000000  0.6000000000000001  0.4000000000000000
  0.2000000000000000  0.6000000000000001  0.4000000000000000
  0.4000000000000000  0.6000000000000001  0.4000000000000000
  0.6000000000000001  0.6000000000000001  0.4000000000000000
  0.8000000000000000  0.6000000000000001  0.4000000000000000
  0.0000000000000000  0.8000000000000000  0.4000000000000000
  0.2000000000000000  0.8000000000000000  0.4000000000000000
  0.4000000000000000  0.8000000000000000  0.4000000000000000
  0.6000000000000001  0.8000000000000000  0.4000000000000000
  0.8000000000000000  0.8000000000000000  0.4000000000000000
  0.0000000000000000  0.0000000000000000  0.6000000000000001
  0.2000000000000000  0.0000000000000000  0.6000000000000001
  0.4000000000000000  0.0000000000000000  0.6000000000000001
  0.6000000000000001  0.0000000000000000  0.6000000000000001
  0.8000000000000000  0.0000000000000000  0.6000000000000001
  0.0000000000000000  0.2000000000000000  0.6000000000000001
  0.2000000000000000  0.2000000000000000  0.6000000000000001
  0.4000000000000000  0.2000000000000000  0.6000000000000001
  0.6000000000000001  0.2000000000000000  0.6000000000000001
  0.8000000000000000  0.2000000000000000  0.6000000000000001
  0.0000000000000000  0.4000000000000000  0.6000000000000001
  0.2000000000000000  0.4000000000000000  0.6000000000000001
  0.4000000000000000  0.4000000000000000  0.6000000000000001
  0.6000000000000001  0.4000000000000000  0.6000000000000001
  0.8000000000000000  0.4000000000000000  0.6000000000000001
  0.0000000000000000  0.6000000000000001  0.6000000000000001
  0.2000000000000000  0.6000000000000001  0.6000000000000001
  0.4000000000000000  0.6000000000000001  0.6000000000000001
  0.6000000000000001  0.6000000000000001  0.6000000000000001
  0.8000000000000000  0.6000000000000001  0.6000000000000001
  0.0000000000000000  0.8000000000000000  0.6000000000000001
  0.2000000000000000  0.8000000000000000  0.6000000000000001
  0.4000000000000000  0.8000000000000000  0.6000000000000001
  0.6000000000000001  0.8000000000000000  0.6000000000000001
  0.8000000000000000  0.8000000000000000  0.6000000000000001
  0.0000000000000000  0.0000000000000000  0.8000000000000000
  0.2000000000000000  0.0000000000000000  0.8000000000000000
  0.4000000000000000  0.0000000000000000  0.8000000000000000
  0.6000000000000001  0.0000000000000000  0.8000000000000000
  0.8000000000000000  0.0000000000000000  0.8000000000000000
  0.0000000000000000  0.2000000000000000  0.8000000000000000
  0.2000000000000000  0.2000000000000000  0.8000000000000000
  0.4000000000000000  0.2000000000000000  0.8000000000000000
  0.6000000000000001  0.2000000000000000  0.8000000000000000
  0.8000000000000000  0.2000000000000000  0.8000000000000000
  0.0000000000000000  0.4000000000000000  0.8000000000000000
  0.2000000000000000  0.4000000000000000  0.8000000000000000
  0.4000000000000000  0.4000000000000000  0.8000000000000000
  0.6000000000000001  0.4000000000000000  0.8000000000000000
  0.8000000000000000  0.4000000000000000  0.8000000000000000
  0.0000000000000000  0.6000000000000001  0.8000000000000000
  0.2000000000000000  0.6000000000000001  0.8000000000000000
  0.4000000000000000  0.6000000000000001  0.8000000000000000
  0.6000000000000001  0.6000000000000001  0.8000000000000000
  0.8000000000000000  0.6000000000000001  0.8000000000000000
  0.0000000000000000  0.8000000000000000  0.8000000000000000
  0.2000000000000000  0.8000000000000000  0.8000000000000000
  0.4000000000000000  0.8000000000000000  0.8000000000000000
  0.6000000000000001  0.8000000000000000  0.8000000000000000
  0.8000000000000000  0.8000000000000000  0.8000000000000000
  0.1000000000000000  0.1000000000000000  0.1000000000000000
  0.3000000000000000  0.1000000000000000  0.1000000000000000
  0.5000000000000000  0.1000000000000000  0.1000000000000000
  0.7000000000000001  0.1000000000000000  0.1000000000000000
  0.9000000000000000  0.1000000000000000  0.1000000000000000
  0.1000000000000000  0.3000000000000000  0.1000000000000000
  0.3000000000000000  0.3000000000000000  0.1000000000000000
  0.5000000000000000  0.3000000000000000  0.1000000000000000
  0.7000000000000001  0.3000000000000000  0.1000000000000000
  0.9000000000000000  0.3000000000000000  0.1000000000000000
  0.1000000000000000  0.5000000000000000  0.1000000000000000
  0.3000000000000000  0.5000000000000000  0.1000000000000000
  0.5000000000000000  0.5000000000000000  0.1000000000000000
  0.7000000000000001  0.5000000000000000  0.1000000000000000
  0.9000000000000000  0.5000000000000000  0.1000000000000000
  0.1000000000000000  0.7000000000000001  0.1000000000000000
  0.3000000000000000  0.7000000000000001  0.1000000000000000
  0.5000000000000000  0.7000000000000001  0.1000000000000000
  0.7000000000000001  0.7000000000000001  0.1000000000000000
  0.9000000000000000  0.7000000000000001  0.1000000000000000
  0.1000000000000000  0.9000000000000000  0.1000000000000000
  0.3000000000000000  0.9000000000000000  0.1000000000000000
  0.5000000000000000  0.9000000000000000  0.1000000000000000
  0.7000000000000001  0.9000000000000000  0.1000000000000000
  0.9000000000000000  0.9000000000000000  0.1000000000000000
  0.1000000000000000  0.1000000000000000  0.3000000000000000
  0.3000000000000000  0.1000000000000000  0.3000000000000000
  0.5000000000000000  0.1000000000000000  0.3000000000000000
  0.7000000000000001  0.1000000000000000  0.3000000000000000
  0.9000000000000000  0.1000000000000000  0.3000000000000000
  0.1000000000000000  0.3000000000000000  0.3000000000000000
  0.3000000000000000  0.3000000000000000  0.3000000000000000
  0.5000000000000000  0.3000000000000000  0.3000000000000000
  0.7000000000000001  0.3000000000000000  0.3000000000000000
  0.9000000000000000  0.3000000000000000  0.3000000000000000
  0.1000000000000000  0.5000000000000000  0.3000000000000000
  0.3000000000000000  0.5000000000000000  0.3000000000000000
  0.5000000000000000  0.5000000000000000  0.3000000000000000
  0.7000000000000001  0.5000000000000000  0.3000000000000000
  0.9000000000000000  0.5000000000000000  0.3000000000000000
  0.1000000000000000  0.7000000000000001  0.3000000000000000
  0.3000000000000000  0.7000000000000001  0.3000000000000000
  0.5000000000000000  0.7000000000000001  0.3000000000000000
  0.7000000000000001  0.7000000000000001  0.3000000000000000
  0.9000000000000000  0.7000000000000001  0.3000000000000000
  0.1000000000000000  0.9000000000000000  0.3000000000000000
  0.3000000000000000  0.9000000000000000  0.3000000000000000
  0.5000000000000000  0.9000000000000000  0.3000000000000000
  0.7000000000000001  0.9000000000000000  0.3000000000000000
  0.9000000000000000  0.9000000000000000  0.3000000000000000
  0.1000000000000000  0.1000000000000000  0.5000000000000000
  0.3000000000000000  0.1000000000000000  0.5000000000000000
  0.5000000000000000  0.1000000000000000  0.5000000000000000
  0.7000000000000001  0.1000000000000000  0.5000000000000000
  0.9000000000000000  0.1000000000000000  0.5000000000000000
  0.1000000000000000  0.3000000000000000  0.5000000000000000
  0.3000000000000000  0.3000000000000000  0.5000000000000000
  0.5000000000000000  0.3000000000000000  0.5000000000000000
  0.7000000000000001  0.3000000000000000  0.5000000000000000
  0.9000000000000000  0.3000000000000000  0.5000000000000000
  0.1000000000000000  0.5000000000000000  0.5000000000000000
  0.3000000000000000  0.5000000000000000  0.5000000000000000
  0.5000000000000000  0.5000000000000000  0.5000000000000000
  0.7000000000000001  0.5000000000000000  0.5000000000000000
  0.9000000000000000  0.5000000000000000  0.5000000000000000
  0.1000000000000000  0.7000000000000001  0.5000000000000000
  0.3000000000000000  0.7000000000000001  0.5000000000000000
  0.5000000000000000  0.7000000000000001  0.5000000000000000
  0.7000000000000001  0.7000000000000001  0.5000000000000000
  0.9000000000000000  0.7000000000000001  0.5000000000000000
  0.1000000000000000  0.9000000000000000  0.5000000000000000
  0.3000000000000000  0.9000000000000000  0.5000000000000000
  0.5000000000000000  0.9000000000000000  0.5000000000000000
  0.7000000000000001  0.9000000000000000  0.5000000000000000
  0.9000000000000000  0.9000000000000000  0.5000000000000000
  0.1000000000000000  0.1000000000000000  0.7000000000000001
  0.3000000000000000  0.1000000000000000  0.7000000000000001
  0.5000000000000000  0.1000000000000000  0.7000000000000001
  0.7000000000000001  0.1000000000000000  0.7000000000000001
  0.9000000000000000  0.1000000000000000  0.7000000000000001
  0.1000000000000000  0.3000000000000000  0.7000000000000001
  0.3000000000000000  0.3000000000000000  0.7000000000000001
  0.5000000000000000  0.3000000000000000  0.7000000000000001
  0.7000000000000001  0.3000000000000000  0.7000000000000001
  0.9000000000000000  0.3000000000000000  0.7000000000000001
  0.1000000000000000  0.5000000000000000  0.7000000000000001
  0.3000000000000000  0.5000000000000000  0.7000000000000001
  0.5000000000000000  0.5000000000000000  0.7000000000000001
  0.7000000000000001  0.5000000000000000  0.7000000000000001
  0.9000000000000000  0.5000000000000000  0.7000000000000001
  0.1000000000000000  0.7000000000000001  0.7000000000000001
  0.3000000000000000  0.7000000000000001  0.7000000000000001
  0.5000000000000000  0.7000000000000001  0.7000000000000001
  0.7000000000000001  0.7000000000000001  0.7000000000000001
  0.9000000000000000  0.7000000000000001  0.7000000000000001
  0.1000000000000000  0.9000000000000000  0.7000000000000001
  0.3000000000000000  0.9000000000000000  0.7000000000000001
  0.5000000000000000  0.9000000000000000  0.7000000000000001
  0.7000000000000001  0.9000000000000000  0.7000000000000001
  0.9000000000000000  0.9000000000000000  0.7000000000000001
  0.1000000000000000  0.1000000000000000  0.9000000000000000
  0.3000000000000000  0.1000000000000000  0.9000000000000000
  0.5000000000000000  0.1000000000000000  0.9000000000000000
  0.7000000000000001  0.1000000000000000  0.9000000000000000
  0.9000000000000000  0.1000000000000000  0.9000000000000000
  0.1000000000000000  0.3000000000000000  0.9000000000000000
  0.3000000000000000  0.3000000000000000  0.9000000000000000
  0.5000000000000000  0.3000000000000000  0.9000000000000000
  0.7000000000000001  0.3000000000000000  0.9000000000000000
  0.9000000000000000  0.3000000000000000  0.9000000000000000
  0.1000000000000000  0.5000000000000000  0.9000000000000000
  0.3000000000000000  0.5000000000000000  0.9000000000000000
  0.5000000000000000  0.5000000000000000  0.9000000000000000
  0.7000000000000001  0.5000000000000000  0.9000000000000000
  0.9000000000000000  0.5000000000000000  0.9000000000000000
  0.1000000000000000  0.7000000000000001  0.9000000000000000
  0.3000000000000000  0.7000000000000001  0.9000000000000000
  0.5000000000000000  0.7000000000000001  0.9000000000000000
  0.7000000000000001  0.7000000000000001  0.9000000000000000
  0.9000000000000000  0.7000000000000001  0.9000000000000000
  0.1000000000000000  0.9000000000000000  0.9000000000000000
  0.3000000000000000  0.9000000000000000  0.9000000000000000
  0.5000000000000000  0.9000000000000000  0.9000000000000000
  0.7000000000000001  0.9000000000000000  0.9000000000000000
  0.9000000000000000  0.9000000000000000  0.9000000000000000
  0.1000000000000000  0.1000000000000000  0.0000000000000000
  0.3000000000000000  0.1000000000000000  0.0000000000000000
  0.5000000000000000  0.1000000000000000  0.0000000000000000
  0.7000000000000001  0.1000000000000000  0.0000000000000000
  0.9000000000000000  0.1000000000000000  0.0000000000000000
  0.1000000000000000  0.3000000000000000  0.0000000000000000
  0.3000000000000000  0.3000000000000000  0.0000000000000000
  0.5000000000000000  0.3000000000000000  0.0000000000000000
  0.7000000000000001  0.3000000000000000  0.0000000000000000
  0.9000000000000000  0.3000000000000000  0.0000000000000000
  0.1000000000000000  0.5000000000000000  0.0000000000000000
  0.3000000000000000  0.5000000000000000  0.0000000000000000
  0.5000000000000000  0.5000000000000000  0.0000000000000000
  0.7000000000000001  0.5000000000000000  0.0000000000000000
  0.9000000000000000  0.5000000000000000  0.0000000000000000
  0.1000000000000000  0.7000000000000001  0.0000000000000000
  0.3000000000000000  0.7000000000000001  0.0000000000000000
  0.5000000000000000  0.7000000000000001  0.0000000000000000
  0.7000000000000001  0.7000000000000001  0.0000000000000000
  0.9000000000000000  0.7000000000000001  0.0000000000000000
  0.1000000000000000  0.9000000000000000  0.0000000000000000
  0.3000000000000000  0.9000000000000000  0.0000000000000000
  0.5000000000000000  0.9000000000000000  0.0000000000000000
  0.7000000000000001  0.9000000000000000  0.0000000000000000
  0.9000000000000000  0.9000000000000000  0.0000000000000000
  0.1000000000000000  0.1000000000000000  0.2000000000000000
  0.3000000000000000  0.1000000000000000  0.2000000000000000
  0.5000000000000000  0.1000000000000000  0.2000000000000000
  0.7000000000000001  0.1000000000000000  0.2000000000000000
  0.9000000000000000  0.1000000000000000  0.2000000000000000
  0.1000000000000000  0.3000000000000000  0.2000000000000000
  0.3000000000000000  0.3000000000000000  0.2000000000000000
  0.5000000000000000  0.3000000000000000  0.2000000000000000
  0.7000000000000001  0.3000000000000000  0.2000000000000000
  0.9000000000000000  0.3000000000000000  0.2000000000000000
  0.1000000000000000  0.5000000000000000  0.2000000000000000
  0.3000000000000000  0.5000000000000000  0.2000000000000000
  0.5000000000000000  0.5000000000000000  0.2000000000000000
  0.7000000000000001  0.5000000000000000  0.2000000000000000
  0.9000000000000000  0.5000000000000000  0.2000000000000000
  0.1000000000000000  0.7000000000000001  0.2000000000000000
  0.3000000000000000  0.7000000000000001  0.2000000000000000
  0.5000000000000000  0.7000000000000001  0.2000000000000000
  0.7000000000000001  0.7000000000000001  0.2000000000000000
  0.9000000000000000  0.7000000000000001  0.2000000000000000
  0.1000000000000000  0.9000000000000000  0.2000000000000000
  0.3000000000000000  0.9000000000000000  0.2000000000000000
  0.5000000000000000  0.9000000000000000  0.2000000000000000
  0.7000000000000001  0.9000000000000000  0.2000000000000000
  0.9000000000000000  0.9000000000000000  0.2000000000000000
  0.1000000000000000  0.1000000000000000  0.4000000000000000
  0.3000000000000000  0.1000000000000000  0.4000000000000000
  0.5000000000000000  0.1000000000000000  0.4000000000000000
  0.7000000000000001  0.1000000000000000  0.4000000000000000
  0.9000000000000000  0.1000000000000000  0.4000000000000000
  0.1000000000000000  0.3000000000000000  0.4000000000000000
  0.3000000000000000  0.3000000000000000  0.4000000000000000
  0.5000000000000000  0.3000000000000000  0.4000000000000000
  0.7000000000000001  0.3000000000000000  0.4000000000000000
  0.9000000000000000  0.3000000000000000  0.4000000000000000
  0.1000000000000000  0.5000000000000000  0.4000000000000000
  0.3000000000000000  0.5000000000000000  0.4000000000000000
  0.5000000000000000  0.5000000000000000  0.4000000000000000
  0.7000000000000001  0.5000000000000000  0.4000000000000000
  0.9000000000000000  0.5000000000000000  0.4000000000000000
  0.1000000000000000  0.7000000000000001  0.4000000000000000
  0.3000000000000000  0.7000000000000001  0.4000000000000000
  0.5000000000000000  0.7000000000000001  0.4000000000000000
  0.7000000000000001  0.7000000000000001  0.4000000000000000
  0.9000000000000000  0.7000000000000001  0.4000000000000000
  0.1000000000000000  0.9000000000000000  0.4000000000000000
  0.3000000000000000  0.9000000000000000  0.4000000000000000
  0.5000000000000000  0.9000000000000000  0.4000000000000000
  0.7000000000000001  0.9000000000000000  0.4000000000000000
  0.9000000000000000  0.9000000000000000  0.4000000000000000
  0.1000000000000000  0.1000000000000000  0.6000000000000001
  0.3000000000000000  0.1000000000000000  0.6000000000000001
  0.5000000000000000  0.1000000000000000  0.6000000000000001
  0.7000000000000001  0.1000000000000000  0.6000000000000001
  0.9000000000000000  0.1000000000000000  0.6000000000000001
  0.1000000000000000  0.3000000000000000  0.6000000000000001
  0.3000000000000000  0.3000000000000000  0.6000000000000001
  0.5000000000000000  0.3000000000000000  0.6000000000000001
  0.7000000000000001  0.3000000000000000  0.6000000000000001
  0.9000000000000000  0.3000000000000000  0.6000000000000001
  0.1000000000000000  0.5000000000000000  0.6000000000000001
  0.3000000000000000  0.5000000000000000  0.6000000000000001
  0.5000000000000000  0.5000000000000000  0.6000000000000001
  0.7000000000000001  0.5000000000000000  0.6000000000000001
  0.9000000000000000  0.5000000000000000  0.6000000000000001
  0.1000000000000000  0.7000000000000001  0.6000000000000001
  0.3000000000000000  0.7000000000000001  0.6000000000000001
  0.5000000000000000  0.7000000000000001  0.6000000000000001
  0.7000000000000001  0.7000000000000001  0.6000000000000001
  0.9000000000000000  0.7000000000000001  0.6000000000000001
  0.1000000000000000  0.9000000000000000  0.6000000000000001
  0.3000000000000000  0.9000000000000000  0.6000000000000001
  0.5000000000000000  0.9000000000000000  0.6000000000000001
  0.7000000000000001  0.9000000000000000  0.6000000000000001
  0.9000000000000000  0.9000000000000000  0.6000000000000001
  0.1000000000000000  0.1000000000000000  0.8000000000000000
  0.3000000000000000  0.1000000000000000  0.8000000000000000
  0.5000000000000000  0.1000000000000000  0.8000000000000000
  0.7000000000000001  0.1000000000000000  0.8000000000000000
  0.9000000000000000  0.1000000000000000  0.8000000000000000
  0.1000000000000000  0.3000000000000000  0.8000000000000000
  0.3000000000000000  0.3000000000000000  0.8000000000000000
  0.5000000000000000  0.3000000000000000  0.8000000000000000
  0.7000000000000001  0.3000000000000000  0.8000000000000000
  0.9000000000000000  0.3000000000000000  0.8000000000000000
  0.1000000000000000  0.5000000000000000  0.8000000000000000
  0.3000000000000000  0.5000000000000000  0.8000000000000000
  0.5000000000000000  0.5000000000000000  0.8000000000000000
  0.7000000000000001  0.5000000000000000  0.8000000000000000
  0.9000000000000000  0.5000000000000000  0.8000000000000000
  0.1000000000000000  0.7000000000000001  0.8000000000000000
  0.3000000000000000  0.7000000000000001  0.8000000000000000
  0.5000000000000000  0.7000000000000001  0.8000000000000000
  0.7000000000000001  0.7000000000000001  0.8000000000000000
  0.9000000000000000  0.7000000000000001  0.8000000000000000
  0.1000000000000000  0.9000000000000000  0.8000000000000000
  0.3000000000000000  0.9000000000000000  0.8000000000000000
  0.5000000000000000  0.9000000000000000  0.8000000000000000
  0.7000000000000001  0.9000000000000000  0.8000000000000000
  0.9000000000000000  0.9000000000000000  0.8000000000000000
  0.1000000000000000  0.0000000000000000  0.1000000000000000
  0.3000000000000000  0.0000000000000000  0.1000000000000000
  0.5000000000000000  0.0000000000000000  0.1000000000000000
  0.7000000000000001  0.0000000000000000  0.1000000000000000
  0.9000000000000000  0.0000000000000000  0.1000000000000000
  0.1000000000000000  0.2000000000000000  0.1000000000000000
  0.3000000000000000  0.2000000000000000  0.1000000000000000
  0.5000000000000000  0.2000000000000000  0.1000000000000000
  0.7000000000000001  0.2000000000000000  0.1000000000000000
  0.9000000000000000  0.2000000000000000  0.1000000000000000
  0.1000000000000000  0.4000000000000000  0.1000000000000000
  0.3000000000000000  0.4000000000000000  0.1000000000000000
  0.5000000000000000  0.4000000000000000  0.1000000000000000
  0.7000000000000001  0.4000000000000000  0.1000000000000000
  0.9000000000000000  0.4000000000000000  0.1000000000000000
  0.1000000000000000  0.6000000000000001  0.1000000000000000
  0.3000000000000000  0.6000000000000001  0.1000000000000000
  0.5000000000000000  0.6000000000000001  0.1000000000000000
  0.7000000000000001  0.6000000000000001  0.1000000000000000
  0.9000000000000000  0.6000000000000001  0.1000000000000000
  0.1000000000000000  0.8000000000000000  0.1000000000000000
  0.3000000000000000  0.8000000000000000  0.1000000000000000
  0.5000000000000000  0.8000000000000000  0.1000000000000000
  0.7000000000000001  0.8000000000000000  0.1000000000000000
  0.9000000000000000  0.8000000000000000  0.1000000000000000
  0.1000000000000000  0.0000000000000000  0.3000000000000000
  0.3000000000000000  0.0000000000000000  0.3000000000000000
  0.5000000000000000  0.0000000000000000  0.3000000000000000
  0.7000000000000001  0.0000000000000000  0.3000000000000000
  0.9000000000000000  0.0000000000000000  0.3000000000000000
  0.1000000000000000  0.2000000000000000  0.3000000000000000
  0.3000000000000000  0.2000000000000000  0.3000000000000000
  0.5000000000000000  0.2000000000000000  0.3000000000000000
  0.7000000000000001  0.2000000000000000  0.3000000000000000
  0.9000000000000000  0.2000000000000000  0.3000000000000000
  0.1000000000000000  0.4000000000000000  0.3000000000000000
  0.3000000000000000  0.4000000000000000  0.3000000000000000
  0.5000000000000000  0.4000000000000000  0.3000000000000000
  0.7000000000000001  0.4000000000000000  0.3000000000000000
  0.9000000000000000  0.4000000000000000  0.3000000000000000
  0.1000000000000000  0.6000000000000001  0.3000000000000000
  0.3000000000000000  0.6000000000000001  0.3000000000000000
  0.5000000000000000  0.6000000000000001  0.3000000000000000
  0.7000000000000001  0.6000000000000001  0.3000000000000000
  0.9000000000000000  0.6000000000000001  0.3000000000000000
  0.1000000000000000  0.8000000000000000  0.3000000000000000
  0.3000000000000000  0.8000000000000000  0.3000000000000000
  0.5000000000000000  0.8000000000000000  0.3000000000000000
  0.7000000000000001  0.8000000000000000  0.3000000000000000
  0.9000000000000000  0.8000000000000000  0.3000000000000000
  0.1000000000000000  0.0000000000000000  0.5000000000000000
  0.3000000000000000  0.0000000000000000  0.5000000000000000
  0.5000000000000000  0.0000000000000000  0.5000000000000000
  0.7000000000000001  0.0000000000000000  0.5000000000000000
  0.9000000000000000  0.0000000000000000  0.5000000000000000
  0.1000000000000000  0.2000000000000000  0.5000000000000000
  0.3000000000000000  0.2000000000000000  0.5000000000000000
  0.5000000000000000  0.2000000000000000  0.5000000000000000
  0.7000000000000001  0.2000000000000000  0.5000000000000000
  0.9000000000000000  0.2000000000000000  0.5000000000000000
  0.1000000000000000  0.4000000000000000  0.5000000000000000
  0.3000000000000000  0.4000000000000000  0.5000000000000000
  0.5000000000000000  0.4000000000000000  0.5000000000000000
  0.7000000000000001  0.4000000000000000  0.5000000000000000
  0.9000000000000000  0.4000000000000000  0.5000000000000000
  0.1000000000000000  0.6000000000000001  0.5000000000000000
  0.3000000000000000  0.6000000000000001  0.5000000000000000
  0.5000000000000000  0.6000000000000001  0.5000000000000000
  0.7000000000000001  0.6000000000000001  0.5000000000000000
  0.9000000000000000  0.6000000000000001  0.5000000000000000
  0.1000000000000000  0.8000000000000000  0.5000000000000000
  0.3000000000000000  0.8000000000000000  0.5000000000000000
  0.5000000000000000  0.8000000000000000  0.5000000000000000
  0.7000000000000001  0.8000000000000000  0.5000000000000000
  0.9000000000000000  0.8000000000000000  0.5000000000000000
  0.1000000000000000  0.0000000000000000  0.7000000000000001
  0.3000000000000000  0.0000000000000000  0.7000000000000001
  0.5000000000000000  0.0000000000000000  0.7000000000000001
  0.7000000000000001  0.0000000000000000  0.7000000000000001
  0.9000000000000000  0.0000000000000000  0.7000000000000001
  0.1000000000000000  0.2000000000000000  0.7000000000000001
  0.3000000000000000  0.2000000000000000  0.7000000000000001
  0.5000000000000000  0.2000000000000000  0.7000000000000001
  0.7000000000000001  0.2000000000000000  0.7000000000000001
  0.9000000000000000  0.2000000000000000  0.7000000000000001
  0.1000000000000000  0.4000000000000000  0.7000000000000001
  0.3000000000000000  0.4000000000000000  0.7000000000000001
  0.5000000000000000  0.4000000000000000  0.7000000000000001
  0.7000000000000001  0.4000000000000000  0.7000000000000001
  0.9000000000000000  0.4000000000000000  0.7000000000000001
  0.1000000000000000  0.6000000000000001  0.7000000000000001
  0.3000000000000000  0.6000000000000001  0.7000000000000001
  0.5000000000000000  0.6000000000000001  0.7000000000000001
  0.7000000000000001  0.6000000000000001  0.7000000000000001
  0.9000000000000000  0.6000000000000001  0.7000000000000001
  0.1000000000000000  0.8000000000000000  0.7000000000000001
  0.3000000000000000  0.8000000000000000  0.7000000000000001
  0.5000000000000000  0.8000000000000000  0.7000000000000001
  0.7000000000000001  0.8000000000000000  0.7000000000000001
  0.9000000000000000  0.8000000000000000  0.7000000000000001
  0.1000000000000000  0.0000000000000000  0.9000000000000000
  0.3000000000000000  0.0000000000000000  0.9000000000000000
  0.5000000000000000  0.0000000000000000  0.9000000000000000
  0.7000000000000001  0.0000000000000000  0.9000000000000000
  0.9000000000000000  0.0000000000000000  0.9000000000000000
  0.1000000000000000  0.2000000000000000  0.9000000000000000
  0.3000000000000000  0.2000000000000000  0.9000000000000000
  0.5000000000000000  0.2000000000000000  0.9000000000000000
  0.7000000000000001  0.2000000000000000  0.9000000000000000
  0.9000000000000000  0.2000000000000000  0.9000000000000000
  0.1000000000000000  0.4000000000000000  0.9000000000000000
  0.3000000000000000  0.4000000000000000  0.9000000000000000