Ba Ti O
   1.0
    31.7710489776799996    0.0000000000000000    0.0000000000000000
     0.0000000000000000   31.7710489776799996    0.0000000000000000
     0.0000000000000000    0.0000000000000000   31.7710489776799996
 512  512 1536
Direct
  0.0003147519619835  0.0000000000000000  0.0000000000000000
  0.1250000000000000  0.0000000000000000  0.0000000000000000
  0.2500000000000000  0.0000000000000000  0.0000000000000000
  0.3750000000000001  0.0000000000000000  0.0000000000000000
  0.5000000000000000  0.0000000000000000  0.0000000000000000
  0.6250000000000000  0.0000000000000000  0.0000000000000000
  0.7500000000000001  0.0000000000000000  0.0000000000000000
  0.8750000000000000  0.0000000000000000  0.0000000000000000
  0.0000000000000000  0.1250000000000000  0.0000000000000000
  0.1250000000000000  0.1250000000000000  0.0000000000000000
  0.2500000000000000  0.1250000000000000  0.0000000000000000
  0.3750000000000001  0.1250000000000000  0.0000000000000000
  0.5000000000000000  0.1250000000000000  0.0000000000000000
  0.6250000000000000  0.1250000000000000  0.0000000000000000
  0.7500000000000001  0.1250000000000000  0.0000000000000000
  0.8750000000000000  0.1250000000000000  0.0000000000000000
  0.0000000000000000  0.2500000000000000  0.0000000000000000
  0.1250000000000000  0.2500000000000000  0.0000000000000000
  0.2500000000000000  0.2500000000000000  0.0000000000000000
  0.3750000000000001  0.2500000000000000  0.0000000000000000
  0.5000000000000000  0.2500000000000000  0.0000000000000000
  0.6250000000000000  0.2500000000000000  0.0000000000000000
  0.7500000000000001  0.2500000000000000  0.0000000000000000
  0.8750000000000000  0.2500000000000000  0.0000000000000000
  0.0000000000000000  0.3750000000000001  0.0000000000000000
  0.1250000000000000  0.3750000000000001  0.0000000000000000
  0.2500000000000000  0.3750000000000001  0.0000000000000000
  0.3750000000000001  0.3750000000000001  0.0000000000000000
  0.5000000000000000  0.3750000000000001  0.0000000000000000
  0.6250000000000000  0.3750000000000001  0.0000000000000000
  0.7500000000000001  0.3750000000000001  0.0000000000000000
  0.8750000000000000  0.3750000000000001  0.0000000000000000
  0.0000000000000000  0.5000000000000000  0.0000000000000000
  0.1250000000000000  0.5000000000000000  0.0000000000000000
  0.2500000000000000  0.5000000000000000  0.0000000000000000
  0.3750000000000001  0.5000000000000000  0.0000000000000000
  0.5000000000000000  0.5000000000000000  0.0000000000000000
  0.6250000000000000  0.5000000000000000  0.0000000000000000
  0.7500000000000001  0.5000000000000000  0.0000000000000000
  0.8750000000000000  0.5000000000000000  0.0000000000000000
  0.0000000000000000  0.6250000000000000  0.0000000000000000
  0.1250000000000000  0.6250000000000000  0.0000000000000000
  0.2500000000000000  0.6250000000000000  0.0000000000000000
  0.3750000000000001  0.6250000000000000  0.0000000000000000
  0.5000000000000000  0.6250000000000000  0.0000000000000000
  0.6250000000000000  0.6250000000000000  0.0000000000000000
  0.7500000000000001  0.6250000000000000  0.0000000000000000
  0.8750000000000000  0.6250000000000000  0.0000000000000000
  0.0000000000000000  0.7500000000000001  0.0000000000000000
  0.1250000000000000  0.7500000000000001  0.0000000000000000
  0.2500000000000000  0.7500000000000001  0.0000000000000000
  0.3750000000000001  0.7500000000000001  0.0000000000000000
  0.5000000000000000  0.7500000000000001  0.0000000000000000
  0.6250000000000000  0.7500000000000001  0.0000000000000000
  0.7500000000000001  0.7500000000000001  0.0000000000000000
  0.8750000000000000  0.7500000000000001  0.0000000000000000
  0.0000000000000000  0.8750000000000000  0.0000000000000000
  0.1250000000000000  0.8750000000000000  0.0000000000000000
  0.2500000000000000  0.8750000000000000  0.0000000000000000
  0.3750000000000001  0.8750000000000000  0.0000000000000000
  0.5000000000000000  0.8750000000000000  0.0000000000000000
  0.6250000000000000  0.8750000000000000  0.0000000000000000
  0.7500000000000001  0.8750000000000000  0.0000000000000000
  0.8750000000000000  0.8750000000000000  0.0000000000000000
  0.0000000000000000  0.0000000000000000  0.1250000000000000
  0.1250000000000000  0.0000000000000000  0.1250000000000000
  0.2500000000000000  0.0000000000000000  0.1250000000000000
  0.3750000000000001  0.0000000000000000  0.1250000000000000
  0.5000000000000000  0.0000000000000000  0.1250000000000000
  0.6250000000000000  0.0000000000000000  0.1250000000000000
  0.7500000000000001  0.0000000000000000  0.1250000000000000
  0.8750000000000000  0.0000000000000000  0.1250000000000000
  0.0000000000000000  0.1250000000000000  0.1250000000000000
  0.1250000000000000  0.1250000000000000  0.1250000000000000
  0.2500000000000000  0.1250000000000000  0.1250000000000000
  0.3750000000000001  0.1250000000000000  0.1250000000000000
  0.5000000000000000  0.1250000000000000  0.1250000000000000
  0.6250000000000000  0.1250000000000000  0.1250000000000000
  0.7500000000000001  0.1250000000000000  0.1250000000000000
  0.8750000000000000  0.1250000000000000  0.1250000000000000
  0.0000000000000000  0.2500000000000000  0.1250000000000000
  0.1250000000000000  0.2500000000000000  0.1250000000000000
  0.2500000000000000  0.2500000000000000  0.1250000000000000
  0.3750000000000001  0.2500000000000000  0.1250000000000000
  0.5000000000000000  0.2500000000000000  0.1250000000000000
  0.6250000000000000  0.2500000000000000  0.1250000000000000
  0.7500000000000001  0.2500000000000000  0.1250000000000000
  0.8750000000000000  0.2500000000000000  0.1250000000000000
  0.0000000000000000  0.3750000000000001  0.1250000000000000
  0.1250000000000000  0.3750000000000001  0.1250000000000000
  0.2500000000000000  0.3750000000000001  0.1250000000000000
  0.3750000000000001  0.3750000000000001  0.1250000000000000
  0.5000000000000000  0.3750000000000001  0.1250000000000000
  0.6250000000000000  0.3750000000000001  0.1250000000000000
  0.7500000000000001  0.3750000000000001  0.1250000000000000
  0.8750000000000000  0.3750000000000001  0.1250000000000000
  0.0000000000000000  0.5000000000000000  0.1250000000000000
  0.1250000000000000  0.5000000000000000  0.1250000000000000
  0.2500000000000000  0.5000000000000000  0.1250000000000000
  0.3750000000000001  0.5000000000000000  0.1250000000000000
  0.5000000000000000  0.5000000000000000  0.1250000000000000
  0.6250000000000000  0.5000000000000000  0.1250000000000000
  0.7500000000000001  0.5000000000000000  0.1250000000000000
  0.8750000000000000  0.5000000000000000  0.1250000000000000
  0.0000000000000000  0.6250000000000000  0.1250000000000000
  0.1250000000000000  0.6250000000000000  0.1250000000000000
  0.2500000000000000  0.6250000000000000  0.1250000000000000
  0.3750000000000001  0.6250000000000000  0.1250000000000000
  0.5000000000000000  0.6250000000000000  0.1250000000000000
  0.6250000000000000  0.6250000000000000  0.1250000000000000
  0.7500000000000001  0.6250000000000000  0.1250000000000000
  0.8750000000000000  0.6250000000000000  0.1250000000000000
  0.0000000000000000  0.7500000000000001  0.1250000000000000
  0.1250000000000000  0.7500000000000001  0.1250000000000000
  0.2500000000000000  0.7500000000000001  0.1250000000000000
  0.3750000000000001  0.7500000000000001  0.1250000000000000
  0.5000000000000000  0.7500000000000001  0.1250000000000000
  0.6250000000000000  0.7500000000000001  0.1250000000000000
  0.7500000000000001  0.7500000000000001  0.1250000000000000
  0.8750000000000000  0.7500000000000001  0.1250000000000000
  0.0000000000000000  0.8750000000000000  0.1250000000000000
  0.1250000000000000  0.8750000000000000  0.1250000000000000
  0.2500000000000000  0.8750000000000000  0.1250000000000000
  0.3750000000000001  0.8750000000000000  0.1250000000000000
  0.5000000000000000  0.8750000000000000  0.1250000000000000
  0.6250000000000000  0.8750000000000000  0.1250000000000000
  0.7500000000000001  0.8750000000000000  0.1250000000000000
  0.8750000000000000  0.8750000000000000  0.1250000000000000
  0.0000000000000000  0.0000000000000000  0.2500000000000000
  0.1250000000000000  0.0000000000000000  0.2500000000000000
  0.2500000000000000  0.0000000000000000  0.2500000000000000
  0.3750000000000001  0.0000000000000000  0.2500000000000000
  0.5000000000000000  0.0000000000000000  0.2500000000000000
  0.6250000000000000  0.0000000000000000  0.2500000000000000
  0.7500000000000001  0.0000000000000000  0.2500000000000000
  0.8750000000000000  0.0000000000000000  0.2500000000000000
  0.0000000000000000  0.1250000000000000  0.2500000000000000
  0.1250000000000000  0.1250000000000000  0.2500000000000000
  0.2500000000000000  0.1250000000000000  0.2500000000000000
  0.3750000000000001  0.1250000000000000  0.2500000000000000
  0.5000000000000000  0.1250000000000000  0.2500000000000000
  0.6250000000000000  0.1250000000000000  0.2500000000000000
  0.7500000000000001  0.1250000000000000  0.2500000000000000
  0.8750000000000000  0.1250000000000000  0.2500000000000000
  0.0000000000000000  0.2500000000000000  0.2500000000000000
  0.1250000000000000  0.2500000000000000  0.2500000000000000
  0.2500000000000000  0.2500000000000000  0.2500000000000000
  0.3750000000000001  0.2500000000000000  0.2500000000000000
  0.5000000000000000  0.2500000000000000  0.2500000000000000
  0.6250000000000000  0.2500000000000000  0.2500000000000000
  0.7500000000000001  0.2500000000000000  0.2500000000000000
  0.8750000000000000  0.2500000000000000  0.2500000000000000
  0.0000000000000000  0.3750000000000001  0.2500000000000000
  0.1250000000000000  0.3750000000000001  0.2500000000000000
  0.2500000000000000  0.3750000000000001  0.2500000000000000
  0.3750000000000001  0.3750000000000001  0.2500000000000000
  0.5000000000000000  0.3750000000000001  0.2500000000000000
  0.6250000000000000  0.3750000000000001  0.2500000000000000
  0.7500000000000001  0.3750000000000001  0.2500000000000000
  0.8750000000000000  0.3750000000000001  0.2500000000000000
  0.0000000000000000  0.5000000000000000  0.2500000000000000
  0.1250000000000000  0.5000000000000000  0.2500000000000000
  0.2500000000000000  0.5000000000000000  0.2500000000000000
  0.3750000000000001  0.5000000000000000  0.2500000000000000
  0.5000000000000000  0.5000000000000000  0.2500000000000000
  0.6250000000000000  0.5000000000000000  0.2500000000000000
  0.7500000000000001  0.5000000000000000  0.2500000000000000
  0.8750000000000000  0.5000000000000000  0.2500000000000000
  0.0000000000000000  0.6250000000000000  0.2500000000000000
  0.1250000000000000  0.6250000000000000  0.2500000000000000
  0.2500000000000000  0.6250000000000000  0.2500000000000000
  0.3750000000000001  0.6250000000000000  0.2500000000000000
  0.5000000000000000  0.6250000000000000  0.2500000000000000
  0.6250000000000000  0.6250000000000000  0.2500000000000000
  0.7500000000000001  0.6250000000000000  0.2500000000000000
  0.8750000000000000  0.6250000000000000  0.2500000000000000
  0.0000000000000000  0.7500000000000001  0.2500000000000000
  0.1250000000000000  0.7500000000000001  0.2500000000000000
  0.2500000000000000  0.7500000000000001  0.2500000000000000
  0.3750000000000001  0.7500000000000001  0.2500000000000000
  0.5000000000000000  0.7500000000000001  0.2500000000000000
  0.6250000000000000  0.7500000000000001  0.2500000000000000
  0.7500000000000001  0.7500000000000001  0.2500000000000000
  0.8750000000000000  0.7500000000000001  0.2500000000000000
  0.0000000000000000  0.8750000000000000  0.2500000000000000
  0.1250000000000000  0.8750000000000000  0.2500000000000000
  0.2500000000000000  0.8750000000000000  0.2500000000000000
  0.3750000000000001  0.8750000000000000  0.2500000000000000
  0.5000000000000000  0.8750000000000000  0.2500000000000000
  0.6250000000000000  0.8750000000000000  0.2500000000000000
  0.7500000000000001  0.8750000000000000  0.2500000000000000
  0.8750000000000000  0.8750000000000000  0.2500000000000000
  0.0000000000000000  0.0000000000000000  0.3750000000000001
  0.1250000000000000  0.0000000000000000  0.3750000000000001
  0.2500000000000000  0.0000000000000000  0.3750000000000001
  0.3750000000000001  0.0000000000000000  0.3750000000000001
  0.5000000000000000  0.0000000000000000  0.3750000000000001
  0.6250000000000000  0.0000000000000000  0.3750000000000001
  0.7500000000000001  0.0000000000000000  0.3750000000000001
  0.8750000000000000  0.0000000000000000  0.3750000000000001
  0.0000000000000000  0.1250000000000000  0.3750000000000001
  0.1250000000000000  0.1250000000000000  0.3750000000000001
  0.2500000000000000  0.1250000000000000  0.3750000000000001
  0.3750000000000001  0.1250000000000000  0.3750000000000001
  0.5000000000000000  0.1250000000000000  0.3750000000000001
  0.6250000000000000  0.1250000000000000  0.3750000000000001
  0.7500000000000001  0.1250000000000000  0.3750000000000001
  0.8750000000000000  0.1250000000000000  0.3750000000000001
  0.0000000000000000  0.2500000000000000  0.3750000000000001
  0.1250000000000000  0.2500000000000000  0.3750000000000001
  0.2500000000000000  0.2500000000000000  0.3750000000000001
  0.3750000000000001  0.2500000000000000  0.3750000000000001
  0.5000000000000000  0.2500000000000000  0.3750000000000001
  0.6250000000000000  0.2500000000000000  0.3750000000000001
  0.7500000000000001  0.2500000000000000  0.3750000000000001
  0.8750000000000000  0.2500000000000000  0.3750000000000001
  0.0000000000000000  0.3750000000000001  0.3750000000000001
  0.1250000000000000  0.3750000000000001  0.3750000000000001
  0.2500000000000000  0.3750000000000001  0.3750000000000001
  0.3750000000000001  0.3750000000000001  0.3750000000000001
  0.5000000000000000  0.3750000000000001  0.3750000000000001
  0.6250000000000000  0.3750000000000001  0.3750000000000001
  0.7500000000000001  0.3750000000000001  0.3750000000000001
  0.8750000000000000  0.3750000000000001  0.3750000000000001
  0.0000000000000000  0.5000000000000000  0.3750000000000001
  0.1250000000000000  0.5000000000000000  0.3750000000000001
  0.2500000000000000  0.5000000000000000  0.3750000000000001
  0.3750000000000001  0.5000000000000000  0.3750000000000001
  0.5000000000000000  0.5000000000000000  0.3750000000000001
  0.6250000000000000  0.5000000000000000  0.3750000000000001
  0.7500000000000001  0.5000000000000000  0.3750000000000001
  0.8750000000000000  0.5000000000000000  0.3750000000000001
  0.0000000000000000  0.6250000000000000  0.3750000000000001
  0.1250000000000000  0.6250000000000000  0.3750000000000001
  0.2500000000000000  0.6250000000000000  0.3750000000000001
  0.3750000000000001  0.6250000000000000  0.3750000000000001
  0.5000000000000000  0.6250000000000000  0.3750000000000001
  0.6250000000000000  0.6250000000000000  0.3750000000000001
  0.7500000000000001  0.6250000000000000  0.3750000000000001
  0.8750000000000000  0.6250000000000000  0.3750000000000001
  0.0000000000000000  0.7500000000000001  0.3750000000000001
  0.1250000000000000  0.7500000000000001  0.3750000000000001
  0.2500000000000000  0.7500000000000001  0.3750000000000001
  0.3750000000000001  0.7500000000000001  0.3750000000000001
  0.5000000000000000  0.7500000000000001  0.3750000000000001
  0.6250000000000000  0.7500000000000001  0.3750000000000001
  0.7500000000000001  0.7500000000000001  0.3750000000000001
  0.8750000000000000  0.7500000000000001  0.3750000000000001
  0.0000000000000000  0.8750000000000000  0.3750000000000001
  0.1250000000000000  0.8750000000000000  0.3750000000000001
  0.2500000000000000  0.8750000000000000  0.3750000000000001
  0.3750000000000001  0.8750000000000000  0.3750000000000001
  0.5000000000000000  0.8750000000000000  0.3750000000000001
  0.6250000000000000  0.8750000000000000  0.3750000000000001
  0.7500000000000001  0.8750000000000000  0.3750000000000001
  0.8750000000000000  0.8750000000000000  0.3750000000000001
  0.0000000000000000  0.0000000000000000  0.5000000000000000
  0.1250000000000000  0.0000000000000000  0.5000000000000000
  0.2500000000000000  0.0000000000000000  0.5000000000000000
  0.3750000000000001  0.0000000000000000  0.5000000000000000
  0.5000000000000000  0.0000000000000000  0.5000000000000000
  0.6250000000000000  0.0000000000000000  0.5000000000000000
  0.7500000000000001  0.0000000000000000  0.5000000000000000
  0.8750000000000000  0.0000000000000000  0.5000000000000000
  0.0000000000000000  0.1250000000000000  0.5000000000000000
  0.1250000000000000  0.1250000000000000  0.5000000000000000
  0.2500000000000000  0.1250000000000000  0.5000000000000000
  0.3750000000000001  0.1250000000000000  0.5000000000000000
  0.5000000000000000  0.1250000000000000  0.5000000000000000
  0.6250000000000000  0.1250000000000000  0.5000000000000000
  0.7500000000000001  0.1250000000000000  0.5000000000000000
  0.8750000000000000  0.1250000000000000  0.5000000000000000
  0.0000000000000000  0.2500000000000000  0.5000000000000000
  0.1250000000000000  0.2500000000000000  0.5000000000000000
  0.2500000000000000  0.2500000000000000  0.5000000000000000
  0.3750000000000001  0.2500000000000000  0.5000000000000000
  0.5000000000000000  0.2500000000000000  0.5000000000000000
  0.6250000000000000  0.2500000000000000  0.5000000000000000
  0.7500000000000001  0.2500000000000000  0.5000000000000000
  0.8750000000000000  0.2500000000000000  0.5000000000000000
  0.0000000000000000  0.3750000000000001  0.5000000000000000
  0.1250000000000000  0.3750000000000001  0.5000000000000000
  0.2500000000000000  0.3750000000000001  0.5000000000000000
  0.3750000000000001  0.3750000000000001  0.5000000000000000
  0.5000000000000000  0.3750000000000001  0.5000000000000000
  0.6250000000000000  0.3750000000000001  0.5000000000000000
  0.7500000000000001  0.3750000000000001  0.5000000000000000
  0.8750000000000000  0.3750000000000001  0.5000000000000000
  0.0000000000000000  0.5000000000000000  0.5000000000000000
  0.1250000000000000  0.5000000000000000  0.5000000000000000
  0.2500000000000000  0.5000000000000000  0.5000000000000000
  0.3750000000000001  0.5000000000000000  0.5000000000000000
  0.5000000000000000  0.5000000000000000  0.5000000000000000
  0.6250000000000000  0.5000000000000000  0.5000000000000000
  0.7500000000000001  0.5000000000000000  0.5000000000000000
  0.8750000000000000  0.5000000000000000  0.5000000000000000
  0.0000000000000000  0.6250000000000000  0.5000000000000000
  0.1250000000000000  0.6250000000000000  0.5000000000000000
  0.2500000000000000  0.6250000000000000  0.5000000000000000
  0.3750000000000001  0.6250000000000000  0.5000000000000000
  0.5000000000000000  0.6250000000000000  0.5000000000000000
  0.6250000000000000  0.6250000000000000  0.5000000000000000
  0.7500000000000001  0.6250000000000000  0.5000000000000000
  0.8750000000000000  0.6250000000000000  0.5000000000000000
  0.0000000000000000  0.7500000000000001  0.5000000000000000
  0.1250000000000000  0.7500000000000001  0.5000000000000000
  0.2500000000000000  0.7500000000000001  0.5000000000000000
  0.3750000000000001  0.7500000000000001  0.5000000000000000
  0.5000000000000000  0.7500000000000001  0.5000000000000000
  0.6250000000000000  0.7500000000000001  0.5000000000000000
  0.7500000000000001  0.7500000000000001  0.5000000000000000
  0.8750000000000000  0.7500000000000001  0.5000000000000000
  0.0000000000000000  0.8750000000000000  0.5000000000000000
  0.1250000000000000  0.8750000000000000  0.5000000000000000
  0.2500000000000000  0.8750000000000000  0.5000000000000000
  0.3750000000000001  0.8750000000000000  0.5000000000000000
  0.5000000000000000  0.8750000000000000  0.5000000000000000
  0.6250000000000000  0.8750000000000000  0.5000000000000000
  0.7500000000000001  0.8750000000000000  0.5000000000000000
  0.8750000000000000  0.8750000000000000  0.5000000000000000
  0.0000000000000000  0.0000000000000000  0.6250000000000000
  0.1250000000000000  0.0000000000000000  0.6250000000000000
  0.2500000000000000  0.0000000000000000  0.6250000000000000
  0.3750000000000001  0.0000000000000000  0.6250000000000000
  0.5000000000000000  0.0000000000000000  0.6250000000000000
  0.6250000000000000  0.0000000000000000  0.6250000000000000
  0.7500000000000001  0.0000000000000000  0.6250000000000000
  0.8750000000000000  0.0000000000000000  0.6250000000000000
  0.0000000000000000  0.1250000000000000  0.6250000000000000
  0.1250000000000000  0.1250000000000000  0.6250000000000000
  0.2500000000000000  0.1250000000000000  0.6250000000000000
  0.3750000000000001  0.1250000000000000  0.6250000000000000
  0.5000000000000000  0.1250000000000000  0.6250000000000000
  0.6250000000000000  0.1250000000000000  0.6250000000000000
  0.7500000000000001  0.1250000000000000  0.6250000000000000
  0.8750000000000000  0.1250000000000000  0.6250000000000000
  0.0000000000000000  0.2500000000000000  0.6250000000000000
  0.1250000000000000  0.2500000000000000  0.6250000000000000
  0.2500000000000000  0.2500000000000000  0.6250000000000000
  0.3750000000000001  0.2500000000000000  0.6250000000000000
  0.5000000000000000  0.2500000000000000  0.6250000000000000
  0.6250000000000000  0.2500000000000000  0.6250000000000000
  0.7500000000000001  0.2500000000000000  0.6250000000000000
  0.8750000000000000  0.2500000000000000  0.6250000000000000
  0.0000000000000000  0.3750000000000001  0.6250000000000000
  0.1250000000000000  0.3750000000000001  0.6250000000000000
  0.2500000000000000  0.3750000000000001  0.6250000000000000
  0.3750000000000001  0.3750000000000001  0.6250000000000000
  0.5000000000000000  0.3750000000000001  0.6250000000000000
  0.6250000000000000  0.3750000000000001  0.6250000000000000
  0.7500000000000001  0.3750000000000001  0.6250000000000000
  0.8750000000000000  0.3750000000000001  0.6250000000000000
  0.0000000000000000  0.5000000000000000  0.6250000000000000
  0.1250000000000000  0.5000000000000000  0.6250000000000000
  0.2500000000000000  0.5000000000000000  0.6250000000000000
  0.3750000000000001  0.5000000000000000  0.6250000000000000
  0.5000000000000000  0.5000000000000000  0.6250000000000000
  0.6250000000000000  0.5000000000000000  0.6250000000000000
  0.7500000000000001  0.5000000000000000  0.6250000000000000
  0.8750000000000000  0.5000000000000000  0.6250000000000000
  0.0000000000000000  0.6250000000000000  0.6250000000000000
  0.1250000000000000  0.6250000000000000  0.6250000000000000
  0.2500000000000000  0.6250000000000000  0.6250000000000000
  0.3750000000000001  0.6250000000000000  0.6250000000000000
  0.5000000000000000  0.6250000000000000  0.6250000000000000
  0.6250000000000000  0.6250000000000000  0.6250000000000000
  0.7500000000000001  0.6250000000000000  0.6250000000000000
  0.8750000000000000  0.6250000000000000  0.6250000000000000
  0.0000000000000000  0.7500000000000001  0.6250000000000000
  0.1250000000000000  0.7500000000000001  0.6250000000000000
  0.2500000000000000  0.7500000000000001  0.6250000000000000
  0.3750000000000001  0.7500000000000001  0.6250000000000000
  0.5000000000000000  0.7500000000000001  0.6250000000000000
  0.6250000000000000  0.7500000000000001  0.6250000000000000
  0.7500000000000001  0.7500000000000001  0.6250000000000000
  0.8750000000000000  0.7500000000000001  0.6250000000000000
  0.0000000000000000  0.8750000000000000  0.6250000000000000
  0.1250000000000000  0.8750000000000000  0.6250000000000000
  0.2500000000000000  0.8750000000000000  0.6250000000000000
  0.3750000000000001  0.8750000000000000  0.6250000000000000
  0.5000000000000000  0.8750000000000000  0.6250000000000000
  0.6250000000000000  0.8750000000000000  0.6250000000000000
  0.7500000000000001  0.8750000000000000  0.6250000000000000
  0.8750000000000000  0.8750000000000000  0.6250000000000000
  0.0000000000000000  0.0000000000000000  0.7500000000000001
  0.1250000000000000  0.0000000000000000  0.7500000000000001
  0.2500000000000000  0.0000000000000000  0.7500000000000001
  0.3750000000000001  0.0000000000000000  0.7500000000000001
  0.5000000000000000  0.0000000000000000  0.7500000000000001
  0.6250000000000000  0.0000000000000000  0.7500000000000001
  0.7500000000000001  0.0000000000000000  0.7500000000000001
  0.8750000000000000  0.0000000000000000  0.7500000000000001
  0.0000000000000000  0.1250000000000000  0.7500000000000001
  0.1250000000000000  0.1250000000000000  0.7500000000000001
  0.2500000000000000  0.1250000000000000  0.7500000000000001
  0.3750000000000001  0.1250000000000000  0.7500000000000001
  0.5000000000000000  0.1250000000000000  0.7500000000000001
  0.6250000000000000  0.1250000000000000  0.7500000000000001
  0.7500000000000001  0.1250000000000000  0.7500000000000001
  0.8750000000000000  0.1250000000000000  0.7500000000000001
  0.0000000000000000  0.2500000000000000  0.7500000000000001
  0.1250000000000000  0.2500000000000000  0.7500000000000001
  0.2500000000000000  0.2500000000000000  0.7500000000000001
  0.3750000000000001  0.2500000000000000  0.7500000000000001
  0.5000000000000000  0.2500000000000000  0.7500000000000001
  0.6250000000000000  0.2500000000000000  0.7500000000000001
  0.7500000000000001  0.2500000000000000  0.7500000000000001
  0.8750000000000000  0.2500000000000000  0.7500000000000001
  0.0000000000000000  0.3750000000000001  0.7500000000000001
  0.1250000000000000  0.3750000000000001  0.7500000000000001
  0.2500000000000000  0.3750000000000001  0.7500000000000001
  0.3750000000000001  0.3750000000000001  0.7500000000000001
  0.5000000000000000  0.3750000000000001  0.7500000000000001
  0.6250000000000000  0.3750000000000001  0.7500000000000001
  0.7500000000000001  0.3750000000000001  0.7500000000000001
  0.8750000000000000  0.3750000000000001  0.7500000000000001
  0.0000000000000000  0.5000000000000000  0.7500000000000001
  0.1250000000000000  0.5000000000000000  0.7500000000000001
  0.2500000000000000  0.5000000000000000  0.7500000000000001
  0.3750000000000001  0.5000000000000000  0.7500000000000001
  0.5000000000000000  0.5000000000000000  0.7500000000000001
  0.6250000000000000  0.5000000000000000  0.7500000000000001
  0.7500000000000001  0.5000000000000000  0.7500000000000001
  0.8750000000000000  0.5000000000000000  0.7500000000000001
  0.0000000000000000  0.6250000000000000  0.7500000000000001
  0.1250000000000000  0.6250000000000000  0.7500000000000001
  0.2500000000000000  0.6250000000000000  0.7500000000000001
  0.3750000000000001  0.6250000000000000  0.7500000000000001
  0.5000000000000000  0.6250000000000000  0.7500000000000001
  0.6250000000000000  0.6250000000000000  0.7500000000000001
  0.7500000000000001  0.6250000000000000  0.7500000000000001
  0.8750000000000000  0.6250000000000000  0.7500000000000001
  0.0000000000000000  0.7500000000000001  0.7500000000000001
  0.1250000000000000  0.7500000000000001  0.7500000000000001
  0.2500000000000000  0.7500000000000001  0.7500000000000001
  0.3750000000000001  0.7500000000000001  0.7500000000000001
  0.5000000000000000  0.7500000000000001  0.7500000000000001
  0.6250000000000000  0.7500000000000001  0.7500000000000001
  0.7500000000000001  0.7500000000000001  0.7500000000000001
  0.8750000000000000  0.7500000000000001  0.7500000000000001
  0.0000000000000000  0.8750000000000000  0.7500000000000001
  0.1250000000000000  0.8750000000000000  0.7500000000000001
  0.2500000000000000  0.8750000000000000  0.7500000000000001
  0.3750000000000001  0.8750000000000000  0.7500000000000001
  0.5000000000000000  0.8750000000000000  0.7500000000000001
  0.6250000000000000  0.8750000000000000  0.7500000000000001
  0.7500000000000001  0.8750000000000000  0.7500000000000001
  0.8750000000000000  0.8750000000000000  0.7500000000000001
  0.0000000000000000  0.0000000000000000  0.8750000000000000
  0.1250000000000000  0.0000000000000000  0.8750000000000000
  0.2500000000000000  0.0000000000000000  0.8750000000000000
  0.3750000000000001  0.0000000000000000  0.8750000000000000
  0.5000000000000000  0.0000000000000000  0.8750000000000000
  0.6250000000000000  0.0000000000000000  0.8750000000000000
  0.7500000000000001  0.0000000000000000  0.8750000000000000
  0.8750000000000000  0.0000000000000000  0.8750000000000000
  0.0000000000000000  0.1250000000000000  0.8750000000000000
  0.1250000000000000  0.1250000000000000  0.8750000000000000
  0.2500000000000000  0.1250000000000000  0.8750000000000000
  0.3750000000000001  0.1250000000000000  0.8750000000000000
  0.5000000000000000  0.1250000000000000  0.8750000000000000
  0.6250000000000000  0.1250000000000000  0.8750000000000000
  0.7500000000000001  0.1250000000000000  0.8750000000000000
  0.8750000000000000  0.1250000000000000  0.8750000000000000
  0.0000000000000000  0.2500000000000000  0.8750000000000000
  0.1250000000000000  0.2500000000000000  0.8750000000000000
  0.2500000000000000  0.2500000000000000  0.8750000000000000
  0.3750000000000001  0.2500000000000000  0.8750000000000000
  0.5000000000000000  0.2500000000000000  0.8750000000000000
  0.6250000000000000  0.2500000000000000  0.8750000000000000
  0.7500000000000001  0.2500000000000000  0.8750000000000000
  0.8750000000000000  0.2500000000000000  0.8750000000000000
  0.0000000000000000  0.3750000000000001  0.8750000000000000
  0.1250000000000000  0.3750000000000001  0.8750000000000000
  0.2500000000000000  0.3750000000000001  0.8750000000000000
  0.3750000000000001  0.3750000000000001  0.8750000000000000
  0.5000000000000000  0.3750000000000001  0.8750000000000000
  0.6250000000000000  0.3750000000000001  0.8750000000000000
  0.7500000000000001  0.3750000000000001  0.8750000000000000
  0.8750000000000000  0.3750000000000001  0.8750000000000000
  0.0000000000000000  0.5000000000000000  0.8750000000000000
  0.1250000000000000  0.5000000000000000  0.8750000000000000
  0.2500000000000000  0.5000000000000000  0.8750000000000000
  0.3750000000000001  0.5000000000000000  0.8750000000000000
  0.5000000000000000  0.5000000000000000  0.8750000000000000
  0.6250000000000000  0.5000000000000000  0.8750000000000000
  0.7500000000000001  0.5000000000000000  0.8750000000000000