Ba Ti O
   1.0
     7.9450182904200002    0.0000000000000000    0.0000000000000000
     0.0000000000000000    7.9450182904200002    0.0000000000000000
     0.0000000000000000    0.0000000000000000    7.9450182904200002
   8    8   24
Direct
  0.0012586503434558  0.0000000000000000  0.0000000000000000
  0.5000000000000000  0.0000000000000000  0.0000000000000000
  0.0000000000000000  0.5000000000000000  0.0000000000000000
  0.5000000000000000  0.5000000000000000  0.0000000000000000
  0.0000000000000000  0.0000000000000000  0.5000000000000000
  0.5000000000000000  0.0000000000000000  0.5000000000000000
  0.0000000000000000  0.5000000000000000  0.5000000000000000
  0.5000000000000000  0.5000000000000000  0.5000000000000000
  0.2500000000000000  0.2500000000000000  0.2500000000000000
  0.7499999999999999  0.2500000000000000  0.2500000000000000
  0.2500000000000000  0.7499999999999999  0.2500000000000000
  0.7499999999999999  0.7499999999999999  0.2500000000000000
  0.2500000000000000  0.2500000000000000  0.7499999999999999
  0.7499999999999999  0.2500000000000000  0.7499999999999999
  0.2500000000000000  0.7499999999999999  0.7499999999999999
  0.7499999999999999  0.7499999999999999  0.7499999999999999
  0.2500000000000000  0.2500000000000000  0.0000000000000000
  0.7499999999999999  0.2500000000000000  0.0000000000000000
  0.2500000000000000  0.7499999999999999  0.0000000000000000
  0.7499999999999999  0.7499999999999999  0.0000000000000000
  0.2500000000000000  0.2500000000000000  0.5000000000000000
  0.7499999999999999  0.2500000000000000  0.5000000000000000
  0.2500000000000000  0.7499999999999999  0.5000000000000000
  0.7499999999999999  0.7499999999999999  0.5000000000000000
  0.2500000000000000  0.0000000000000000  0.2500000000000000
  0.7499999999999999  0.0000000000000000  0.2500000000000000
  0.2500000000000000  0.5000000000000000  0.2500000000000000
  0.7499999999999999  0.5000000000000000  0.2500000000000000
  0.2500000000000000  0.0000000000000000  0.7499999999999999
  0.7499999999999999  0.0000000000000000  0.7499999999999999
  0.2500000000000000  0.5000000000000000  0.7499999999999999
  0.7499999999999999  0.5000000000000000  0.7499999999999999
  0.0000000000000000  0.2500000000000000  0.2500000000000000
  0.5000000000000000  0.2500000000000000  0.2500000000000000
  0.0000000000000000  0.7499999999999999  0.2500000000000000
  0.5000000000000000  0.7499999999999999  0.2500000000000000
  0.0000000000000000  0.2500000000000000  0.7499999999999999
  0.5000000000000000  0.2500000000000000  0.7499999999999999
  0.0000000000000000  0.7499999999999999  0.7499999999999999
  0.5000000000000000  0.7499999999999999  0.7499999999999999
