Ba Ti O
1.000000000000000
3.97250914521000     0.00000000000000     0.0000000000000
0.00000000000000     3.97250914521000     0.0000000000000
0.00000000000000     0.00000000000000     3.9725091452100
1 1 3
Direct
    0.00000000000000     0.00000000000000     0.000000000
    0.50000000000000     0.50000000000000     0.500000000
    0.50000000000000     0.50000000000000     0.000000000
    0.50000000000000     0.00000000000000     0.500000000
    0.00000000000000     0.50000000000000     0.500000000
