Ba Ti O
   1.0
     3.9725091452100001    0.0000000000000000    0.0000000000000000
     0.0000000000000000    3.9725091452100001    0.0000000000000000
     0.0000000000000000    0.0000000000000000    3.9725091452100001
   1    1    3
Direct
  0.0000000000000000  0.0000000000000000  0.0000000000000000
  0.5000000000000000  0.5000000000000000  0.5000000000000000
  0.5000000000000000  0.5000000000000000  0.0000000000000000
  0.5000000000000000  0.0000000000000000  0.5000000000000000
  0.0000000000000000  0.5000000000000000  0.5000000000000000
