Ba Ti O
1.000000000000000
3.97138112221000     0.00000000000000     0.0000000000000
0.00000000000000     3.97138112221000     0.0000000000000
0.00000000000000     0.00000000000000     3.9713811222100
1 1 3
Direct
    0.00000000000000     0.00000000000000     0.000000000
    0.50000000000000     0.50000000000000     0.500000000
    0.50000000000000     0.50000000000000     0.000000000
    0.50000000000000     0.00000000000000     0.500000000
    0.00000000000000     0.50000000000000     0.500000000
