Ba Ti O
   1.0
    35.7424300998900009    0.0000000000000000    0.0000000000000000
     0.0000000000000000   35.7424300998900009    0.0000000000000000
     0.0000000000000000    0.0000000000000000   35.7424300998900009
 729  729 2187
Direct
  0.0002797795217631  0.0000000000000000  0.0000000000000000
  0.1111111111111111  0.0000000000000000  0.0000000000000000
  0.2222222222222222  0.0000000000000000  0.0000000000000000
  0.3333333333333334  0.0000000000000000  0.0000000000000000
  0.4444444444444444  0.0000000000000000  0.0000000000000000
  0.5555555555555557  0.0000000000000000  0.0000000000000000
  0.6666666666666667  0.0000000000000000  0.0000000000000000
  0.7777777777777778  0.0000000000000000  0.0000000000000000
  0.8888888888888888  0.0000000000000000  0.0000000000000000
  0.0000000000000000  0.1111111111111111  0.0000000000000000
  0.1111111111111111  0.1111111111111111  0.0000000000000000
  0.2222222222222222  0.1111111111111111  0.0000000000000000
  0.3333333333333334  0.1111111111111111  0.0000000000000000
  0.4444444444444444  0.1111111111111111  0.0000000000000000
  0.5555555555555557  0.1111111111111111  0.0000000000000000
  0.6666666666666667  0.1111111111111111  0.0000000000000000
  0.7777777777777778  0.1111111111111111  0.0000000000000000
  0.8888888888888888  0.1111111111111111  0.0000000000000000
  0.0000000000000000  0.2222222222222222  0.0000000000000000
  0.1111111111111111  0.2222222222222222  0.0000000000000000
  0.2222222222222222  0.2222222222222222  0.0000000000000000
  0.3333333333333334  0.2222222222222222  0.0000000000000000
  0.4444444444444444  0.2222222222222222  0.0000000000000000
  0.5555555555555557  0.2222222222222222  0.0000000000000000
  0.6666666666666667  0.2222222222222222  0.0000000000000000
  0.7777777777777778  0.2222222222222222  0.0000000000000000
  0.8888888888888888  0.2222222222222222  0.0000000000000000
  0.0000000000000000  0.3333333333333334  0.0000000000000000
  0.1111111111111111  0.3333333333333334  0.0000000000000000
  0.2222222222222222  0.3333333333333334  0.0000000000000000
  0.3333333333333334  0.3333333333333334  0.0000000000000000
  0.4444444444444444  0.3333333333333334  0.0000000000000000
  0.5555555555555557  0.3333333333333334  0.0000000000000000
  0.6666666666666667  0.3333333333333334  0.0000000000000000
  0.7777777777777778  0.3333333333333334  0.0000000000000000
  0.8888888888888888  0.3333333333333334  0.0000000000000000
  0.0000000000000000  0.4444444444444444  0.0000000000000000
  0.1111111111111111  0.4444444444444444  0.0000000000000000
  0.2222222222222222  0.4444444444444444  0.0000000000000000
  0.3333333333333334  0.4444444444444444  0.0000000000000000
  0.4444444444444444  0.4444444444444444  0.0000000000000000
  0.5555555555555557  0.4444444444444444  0.0000000000000000
  0.6666666666666667  0.4444444444444444  0.0000000000000000
  0.7777777777777778  0.4444444444444444  0.0000000000000000
  0.8888888888888888  0.4444444444444444  0.0000000000000000
  0.0000000000000000  0.5555555555555557  0.0000000000000000
  0.1111111111111111  0.5555555555555557  0.0000000000000000
  0.2222222222222222  0.5555555555555557  0.0000000000000000
  0.3333333333333334  0.5555555555555557  0.0000000000000000
  0.4444444444444444  0.5555555555555557  0.0000000000000000
  0.5555555555555557  0.5555555555555557  0.0000000000000000
  0.6666666666666667  0.5555555555555557  0.0000000000000000
  0.7777777777777778  0.5555555555555557  0.0000000000000000
  0.8888888888888888  0.5555555555555557  0.0000000000000000
  0.0000000000000000  0.6666666666666667  0.0000000000000000
  0.1111111111111111  0.6666666666666667  0.0000000000000000
  0.2222222222222222  0.6666666666666667  0.0000000000000000
  0.3333333333333334  0.6666666666666667  0.0000000000000000
  0.4444444444444444  0.6666666666666667  0.0000000000000000
  0.5555555555555557  0.6666666666666667  0.0000000000000000
  0.6666666666666667  0.6666666666666667  0.0000000000000000
  0.7777777777777778  0.6666666666666667  0.0000000000000000
  0.8888888888888888  0.6666666666666667  0.0000000000000000
  0.0000000000000000  0.7777777777777778  0.0000000000000000
  0.1111111111111111  0.7777777777777778  0.0000000000000000
  0.2222222222222222  0.7777777777777778  0.0000000000000000
  0.3333333333333334  0.7777777777777778  0.0000000000000000
  0.4444444444444444  0.7777777777777778  0.0000000000000000
  0.5555555555555557  0.7777777777777778  0.0000000000000000
  0.6666666666666667  0.7777777777777778  0.0000000000000000
  0.7777777777777778  0.7777777777777778  0.0000000000000000
  0.8888888888888888  0.7777777777777778  0.0000000000000000
  0.0000000000000000  0.8888888888888888  0.0000000000000000
  0.1111111111111111  0.8888888888888888  0.0000000000000000
  0.2222222222222222  0.8888888888888888  0.0000000000000000
  0.3333333333333334  0.8888888888888888  0.0000000000000000
  0.4444444444444444  0.8888888888888888  0.0000000000000000
  0.5555555555555557  0.8888888888888888  0.0000000000000000
  0.6666666666666667  0.8888888888888888  0.0000000000000000
  0.7777777777777778  0.8888888888888888  0.0000000000000000
  0.8888888888888888  0.8888888888888888  0.0000000000000000
  0.0000000000000000  0.0000000000000000  0.1111111111111111
  0.1111111111111111  0.0000000000000000  0.1111111111111111
  0.2222222222222222  0.0000000000000000  0.1111111111111111
  0.3333333333333334  0.0000000000000000  0.1111111111111111
  0.4444444444444444  0.0000000000000000  0.1111111111111111
  0.5555555555555557  0.0000000000000000  0.1111111111111111
  0.6666666666666667  0.0000000000000000  0.1111111111111111
  0.7777777777777778  0.0000000000000000  0.1111111111111111
  0.8888888888888888  0.0000000000000000  0.1111111111111111
  0.0000000000000000  0.1111111111111111  0.1111111111111111
  0.1111111111111111  0.1111111111111111  0.1111111111111111
  0.2222222222222222  0.1111111111111111  0.1111111111111111
  0.3333333333333334  0.1111111111111111  0.1111111111111111
  0.4444444444444444  0.1111111111111111  0.1111111111111111
  0.5555555555555557  0.1111111111111111  0.1111111111111111
  0.6666666666666667  0.1111111111111111  0.1111111111111111
  0.7777777777777778  0.1111111111111111  0.1111111111111111
  0.8888888888888888  0.1111111111111111  0.1111111111111111
  0.0000000000000000  0.2222222222222222  0.1111111111111111
  0.1111111111111111  0.2222222222222222  0.1111111111111111
  0.2222222222222222  0.2222222222222222  0.1111111111111111
  0.3333333333333334  0.2222222222222222  0.1111111111111111
  0.4444444444444444  0.2222222222222222  0.1111111111111111
  0.5555555555555557  0.2222222222222222  0.1111111111111111
  0.6666666666666667  0.2222222222222222  0.1111111111111111
  0.7777777777777778  0.2222222222222222  0.1111111111111111
  0.8888888888888888  0.2222222222222222  0.1111111111111111
  0.0000000000000000  0.3333333333333334  0.1111111111111111
  0.1111111111111111  0.3333333333333334  0.1111111111111111
  0.2222222222222222  0.3333333333333334  0.1111111111111111
  0.3333333333333334  0.3333333333333334  0.1111111111111111
  0.4444444444444444  0.3333333333333334  0.1111111111111111
  0.5555555555555557  0.3333333333333334  0.1111111111111111
  0.6666666666666667  0.3333333333333334  0.1111111111111111
  0.7777777777777778  0.3333333333333334  0.1111111111111111
  0.8888888888888888  0.3333333333333334  0.1111111111111111
  0.0000000000000000  0.4444444444444444  0.1111111111111111
  0.1111111111111111  0.4444444444444444  0.1111111111111111
  0.2222222222222222  0.4444444444444444  0.1111111111111111
  0.3333333333333334  0.4444444444444444  0.1111111111111111
  0.4444444444444444  0.4444444444444444  0.1111111111111111
  0.5555555555555557  0.4444444444444444  0.1111111111111111
  0.6666666666666667  0.4444444444444444  0.1111111111111111
  0.7777777777777778  0.4444444444444444  0.1111111111111111
  0.8888888888888888  0.4444444444444444  0.1111111111111111
  0.0000000000000000  0.5555555555555557  0.1111111111111111
  0.1111111111111111  0.5555555555555557  0.1111111111111111
  0.2222222222222222  0.5555555555555557  0.1111111111111111
  0.3333333333333334  0.5555555555555557  0.1111111111111111
  0.4444444444444444  0.5555555555555557  0.1111111111111111
  0.5555555555555557  0.5555555555555557  0.1111111111111111
  0.6666666666666667  0.5555555555555557  0.1111111111111111
  0.7777777777777778  0.5555555555555557  0.1111111111111111
  0.8888888888888888  0.5555555555555557  0.1111111111111111
  0.0000000000000000  0.6666666666666667  0.1111111111111111
  0.1111111111111111  0.6666666666666667  0.1111111111111111
  0.2222222222222222  0.6666666666666667  0.1111111111111111
  0.3333333333333334  0.6666666666666667  0.1111111111111111
  0.4444444444444444  0.6666666666666667  0.1111111111111111
  0.5555555555555557  0.6666666666666667  0.1111111111111111
  0.6666666666666667  0.6666666666666667  0.1111111111111111
  0.7777777777777778  0.6666666666666667  0.1111111111111111
  0.8888888888888888  0.6666666666666667  0.1111111111111111
  0.0000000000000000  0.7777777777777778  0.1111111111111111
  0.1111111111111111  0.7777777777777778  0.1111111111111111
  0.2222222222222222  0.7777777777777778  0.1111111111111111
  0.3333333333333334  0.7777777777777778  0.1111111111111111
  0.4444444444444444  0.7777777777777778  0.1111111111111111
  0.5555555555555557  0.7777777777777778  0.1111111111111111
  0.6666666666666667  0.7777777777777778  0.1111111111111111
  0.7777777777777778  0.7777777777777778  0.1111111111111111
  0.8888888888888888  0.7777777777777778  0.1111111111111111
  0.0000000000000000  0.8888888888888888  0.1111111111111111
  0.1111111111111111  0.8888888888888888  0.1111111111111111
  0.2222222222222222  0.8888888888888888  0.1111111111111111
  0.3333333333333334  0.8888888888888888  0.1111111111111111
  0.4444444444444444  0.8888888888888888  0.1111111111111111
  0.5555555555555557  0.8888888888888888  0.1111111111111111
  0.6666666666666667  0.8888888888888888  0.1111111111111111
  0.7777777777777778  0.8888888888888888  0.1111111111111111
  0.8888888888888888  0.8888888888888888  0.1111111111111111
  0.0000000000000000  0.0000000000000000  0.2222222222222222
  0.1111111111111111  0.0000000000000000  0.2222222222222222
  0.2222222222222222  0.0000000000000000  0.2222222222222222
  0.3333333333333334  0.0000000000000000  0.2222222222222222
  0.4444444444444444  0.0000000000000000  0.2222222222222222
  0.5555555555555557  0.0000000000000000  0.2222222222222222
  0.6666666666666667  0.0000000000000000  0.2222222222222222
  0.7777777777777778  0.0000000000000000  0.2222222222222222
  0.8888888888888888  0.0000000000000000  0.2222222222222222
  0.0000000000000000  0.1111111111111111  0.2222222222222222
  0.1111111111111111  0.1111111111111111  0.2222222222222222
  0.2222222222222222  0.1111111111111111  0.2222222222222222
  0.3333333333333334  0.1111111111111111  0.2222222222222222
  0.4444444444444444  0.1111111111111111  0.2222222222222222
  0.5555555555555557  0.1111111111111111  0.2222222222222222
  0.6666666666666667  0.1111111111111111  0.2222222222222222
  0.7777777777777778  0.1111111111111111  0.2222222222222222
  0.8888888888888888  0.1111111111111111  0.2222222222222222
  0.0000000000000000  0.2222222222222222  0.2222222222222222
  0.1111111111111111  0.2222222222222222  0.2222222222222222
  0.2222222222222222  0.2222222222222222  0.2222222222222222
  0.3333333333333334  0.2222222222222222  0.2222222222222222
  0.4444444444444444  0.2222222222222222  0.2222222222222222
  0.5555555555555557  0.2222222222222222  0.2222222222222222
  0.6666666666666667  0.2222222222222222  0.2222222222222222
  0.7777777777777778  0.2222222222222222  0.2222222222222222
  0.8888888888888888  0.2222222222222222  0.2222222222222222
  0.0000000000000000  0.3333333333333334  0.2222222222222222
  0.1111111111111111  0.3333333333333334  0.2222222222222222
  0.2222222222222222  0.3333333333333334  0.2222222222222222
  0.3333333333333334  0.3333333333333334  0.2222222222222222
  0.4444444444444444  0.3333333333333334  0.2222222222222222
  0.5555555555555557  0.3333333333333334  0.2222222222222222
  0.6666666666666667  0.3333333333333334  0.2222222222222222
  0.7777777777777778  0.3333333333333334  0.2222222222222222
  0.8888888888888888  0.3333333333333334  0.2222222222222222
  0.0000000000000000  0.4444444444444444  0.2222222222222222
  0.1111111111111111  0.4444444444444444  0.2222222222222222
  0.2222222222222222  0.4444444444444444  0.2222222222222222
  0.3333333333333334  0.4444444444444444  0.2222222222222222
  0.4444444444444444  0.4444444444444444  0.2222222222222222
  0.5555555555555557  0.4444444444444444  0.2222222222222222
  0.6666666666666667  0.4444444444444444  0.2222222222222222
  0.7777777777777778  0.4444444444444444  0.2222222222222222
  0.8888888888888888  0.4444444444444444  0.2222222222222222
  0.0000000000000000  0.5555555555555557  0.2222222222222222
  0.1111111111111111  0.5555555555555557  0.2222222222222222
  0.2222222222222222  0.5555555555555557  0.2222222222222222
  0.3333333333333334  0.5555555555555557  0.2222222222222222
  0.4444444444444444  0.5555555555555557  0.2222222222222222
  0.5555555555555557  0.5555555555555557  0.2222222222222222
  0.6666666666666667  0.5555555555555557  0.2222222222222222
  0.7777777777777778  0.5555555555555557  0.2222222222222222
  0.8888888888888888  0.5555555555555557  0.2222222222222222
  0.0000000000000000  0.6666666666666667  0.2222222222222222
  0.1111111111111111  0.6666666666666667  0.2222222222222222
  0.2222222222222222  0.6666666666666667  0.2222222222222222
  0.3333333333333334  0.6666666666666667  0.2222222222222222
  0.4444444444444444  0.6666666666666667  0.2222222222222222
  0.5555555555555557  0.6666666666666667  0.2222222222222222
  0.6666666666666667  0.6666666666666667  0.2222222222222222
  0.7777777777777778  0.6666666666666667  0.2222222222222222
  0.8888888888888888  0.6666666666666667  0.2222222222222222
  0.0000000000000000  0.7777777777777778  0.2222222222222222
  0.1111111111111111  0.7777777777777778  0.2222222222222222
  0.2222222222222222  0.7777777777777778  0.2222222222222222
  0.3333333333333334  0.7777777777777778  0.2222222222222222
  0.4444444444444444  0.7777777777777778  0.2222222222222222
  0.5555555555555557  0.7777777777777778  0.2222222222222222
  0.6666666666666667  0.7777777777777778  0.2222222222222222
  0.7777777777777778  0.7777777777777778  0.2222222222222222
  0.8888888888888888  0.7777777777777778  0.2222222222222222
  0.0000000000000000  0.8888888888888888  0.2222222222222222
  0.1111111111111111  0.8888888888888888  0.2222222222222222
  0.2222222222222222  0.8888888888888888  0.2222222222222222
  0.3333333333333334  0.8888888888888888  0.2222222222222222
  0.4444444444444444  0.8888888888888888  0.2222222222222222
  0.5555555555555557  0.8888888888888888  0.2222222222222222
  0.6666666666666667  0.8888888888888888  0.2222222222222222
  0.7777777777777778  0.8888888888888888  0.2222222222222222
  0.8888888888888888  0.8888888888888888  0.2222222222222222
  0.0000000000000000  0.0000000000000000  0.3333333333333334
  0.1111111111111111  0.0000000000000000  0.3333333333333334
  0.2222222222222222  0.0000000000000000  0.3333333333333334
  0.3333333333333334  0.0000000000000000  0.3333333333333334
  0.4444444444444444  0.0000000000000000  0.3333333333333334
  0.5555555555555557  0.0000000000000000  0.3333333333333334
  0.6666666666666667  0.0000000000000000  0.3333333333333334
  0.7777777777777778  0.0000000000000000  0.3333333333333334
  0.8888888888888888  0.0000000000000000  0.3333333333333334
  0.0000000000000000  0.1111111111111111  0.3333333333333334
  0.1111111111111111  0.1111111111111111  0.3333333333333334
  0.2222222222222222  0.1111111111111111  0.3333333333333334
  0.3333333333333334  0.1111111111111111  0.3333333333333334
  0.4444444444444444  0.1111111111111111  0.3333333333333334
  0.5555555555555557  0.1111111111111111  0.3333333333333334
  0.6666666666666667  0.1111111111111111  0.3333333333333334
  0.7777777777777778  0.1111111111111111  0.3333333333333334
  0.8888888888888888  0.1111111111111111  0.3333333333333334
  0.0000000000000000  0.2222222222222222  0.3333333333333334
  0.1111111111111111  0.2222222222222222  0.3333333333333334
  0.2222222222222222  0.2222222222222222  0.3333333333333334
  0.3333333333333334  0.2222222222222222  0.3333333333333334
  0.4444444444444444  0.2222222222222222  0.3333333333333334
  0.5555555555555557  0.2222222222222222  0.3333333333333334
  0.6666666666666667  0.2222222222222222  0.3333333333333334
  0.7777777777777778  0.2222222222222222  0.3333333333333334
  0.8888888888888888  0.2222222222222222  0.3333333333333334
  0.0000000000000000  0.3333333333333334  0.3333333333333334
  0.1111111111111111  0.3333333333333334  0.3333333333333334
  0.2222222222222222  0.3333333333333334  0.3333333333333334
  0.3333333333333334  0.3333333333333334  0.3333333333333334
  0.4444444444444444  0.3333333333333334  0.3333333333333334
  0.5555555555555557  0.3333333333333334  0.3333333333333334
  0.6666666666666667  0.3333333333333334  0.3333333333333334
  0.7777777777777778  0.3333333333333334  0.3333333333333334
  0.8888888888888888  0.3333333333333334  0.3333333333333334
  0.0000000000000000  0.4444444444444444  0.3333333333333334
  0.1111111111111111  0.4444444444444444  0.3333333333333334
  0.2222222222222222  0.4444444444444444  0.3333333333333334
  0.3333333333333334  0.4444444444444444  0.3333333333333334
  0.4444444444444444  0.4444444444444444  0.3333333333333334
  0.5555555555555557  0.4444444444444444  0.3333333333333334
  0.6666666666666667  0.4444444444444444  0.3333333333333334
  0.7777777777777778  0.4444444444444444  0.3333333333333334
  0.8888888888888888  0.4444444444444444  0.3333333333333334
  0.0000000000000000  0.5555555555555557  0.3333333333333334
  0.1111111111111111  0.5555555555555557  0.3333333333333334
  0.2222222222222222  0.5555555555555557  0.3333333333333334
  0.3333333333333334  0.5555555555555557  0.3333333333333334
  0.4444444444444444  0.5555555555555557  0.3333333333333334
  0.5555555555555557  0.5555555555555557  0.3333333333333334
  0.6666666666666667  0.5555555555555557  0.3333333333333334
  0.7777777777777778  0.5555555555555557  0.3333333333333334
  0.8888888888888888  0.5555555555555557  0.3333333333333334
  0.0000000000000000  0.6666666666666667  0.3333333333333334
  0.1111111111111111  0.6666666666666667  0.3333333333333334
  0.2222222222222222  0.6666666666666667  0.3333333333333334
  0.3333333333333334  0.6666666666666667  0.3333333333333334
  0.4444444444444444  0.6666666666666667  0.3333333333333334
  0.5555555555555557  0.6666666666666667  0.3333333333333334
  0.6666666666666667  0.6666666666666667  0.3333333333333334
  0.7777777777777778  0.6666666666666667  0.3333333333333334
  0.8888888888888888  0.6666666666666667  0.3333333333333334
  0.0000000000000000  0.7777777777777778  0.3333333333333334
  0.1111111111111111  0.7777777777777778  0.3333333333333334
  0.2222222222222222  0.7777777777777778  0.3333333333333334
  0.3333333333333334  0.7777777777777778  0.3333333333333334
  0.4444444444444444  0.7777777777777778  0.3333333333333334
  0.5555555555555557  0.7777777777777778  0.3333333333333334
  0.6666666666666667  0.7777777777777778  0.3333333333333334
  0.7777777777777778  0.7777777777777778  0.3333333333333334
  0.8888888888888888  0.7777777777777778  0.3333333333333334
  0.0000000000000000  0.8888888888888888  0.3333333333333334
  0.1111111111111111  0.8888888888888888  0.3333333333333334
  0.2222222222222222  0.8888888888888888  0.3333333333333334
  0.3333333333333334  0.8888888888888888  0.3333333333333334
  0.4444444444444444  0.8888888888888888  0.3333333333333334
  0.5555555555555557  0.8888888888888888  0.3333333333333334
  0.6666666666666667  0.8888888888888888  0.3333333333333334
  0.7777777777777778  0.8888888888888888  0.3333333333333334
  0.8888888888888888  0.8888888888888888  0.3333333333333334
  0.0000000000000000  0.0000000000000000  0.4444444444444444
  0.1111111111111111  0.0000000000000000  0.4444444444444444
  0.2222222222222222  0.0000000000000000  0.4444444444444444
  0.3333333333333334  0.0000000000000000  0.4444444444444444
  0.4444444444444444  0.0000000000000000  0.4444444444444444
  0.5555555555555557  0.0000000000000000  0.4444444444444444
  0.6666666666666667  0.0000000000000000  0.4444444444444444
  0.7777777777777778  0.0000000000000000  0.4444444444444444
  0.8888888888888888  0.0000000000000000  0.4444444444444444
  0.0000000000000000  0.1111111111111111  0.4444444444444444
  0.1111111111111111  0.1111111111111111  0.4444444444444444
  0.2222222222222222  0.1111111111111111  0.4444444444444444
  0.3333333333333334  0.1111111111111111  0.4444444444444444
  0.4444444444444444  0.1111111111111111  0.4444444444444444
  0.5555555555555557  0.1111111111111111  0.4444444444444444
  0.6666666666666667  0.1111111111111111  0.4444444444444444
  0.7777777777777778  0.1111111111111111  0.4444444444444444
  0.8888888888888888  0.1111111111111111  0.4444444444444444
  0.0000000000000000  0.2222222222222222  0.4444444444444444
  0.1111111111111111  0.2222222222222222  0.4444444444444444
  0.2222222222222222  0.2222222222222222  0.4444444444444444
  0.3333333333333334  0.2222222222222222  0.4444444444444444
  0.4444444444444444  0.2222222222222222  0.4444444444444444
  0.5555555555555557  0.2222222222222222  0.4444444444444444
  0.6666666666666667  0.2222222222222222  0.4444444444444444
  0.7777777777777778  0.2222222222222222  0.4444444444444444
  0.8888888888888888  0.2222222222222222  0.4444444444444444
  0.0000000000000000  0.3333333333333334  0.4444444444444444
  0.1111111111111111  0.3333333333333334  0.4444444444444444
  0.2222222222222222  0.3333333333333334  0.4444444444444444
  0.3333333333333334  0.3333333333333334  0.4444444444444444
  0.4444444444444444  0.3333333333333334  0.4444444444444444
  0.5555555555555557  0.3333333333333334  0.4444444444444444
  0.6666666666666667  0.3333333333333334  0.4444444444444444
  0.7777777777777778  0.3333333333333334  0.4444444444444444
  0.8888888888888888  0.3333333333333334  0.4444444444444444
  0.0000000000000000  0.4444444444444444  0.4444444444444444
  0.1111111111111111  0.4444444444444444  0.4444444444444444
  0.2222222222222222  0.4444444444444444  0.4444444444444444
  0.3333333333333334  0.4444444444444444  0.4444444444444444
  0.4444444444444444  0.4444444444444444  0.4444444444444444
  0.5555555555555557  0.4444444444444444  0.4444444444444444
  0.6666666666666667  0.4444444444444444  0.4444444444444444
  0.7777777777777778  0.4444444444444444  0.4444444444444444
  0.8888888888888888  0.4444444444444444  0.4444444444444444
  0.0000000000000000  0.5555555555555557  0.4444444444444444
  0.1111111111111111  0.5555555555555557  0.4444444444444444
  0.2222222222222222  0.5555555555555557  0.4444444444444444
  0.3333333333333334  0.5555555555555557  0.4444444444444444
  0.4444444444444444  0.5555555555555557  0.4444444444444444
  0.5555555555555557  0.5555555555555557  0.4444444444444444
  0.6666666666666667  0.5555555555555557  0.4444444444444444
  0.7777777777777778  0.5555555555555557  0.4444444444444444
  0.8888888888888888  0.5555555555555557  0.4444444444444444
  0.0000000000000000  0.6666666666666667  0.4444444444444444
  0.1111111111111111  0.6666666666666667  0.4444444444444444
  0.2222222222222222  0.6666666666666667  0.4444444444444444
  0.3333333333333334  0.6666666666666667  0.4444444444444444
  0.4444444444444444  0.6666666666666667  0.4444444444444444
  0.5555555555555557  0.6666666666666667  0.4444444444444444
  0.6666666666666667  0.6666666666666667  0.4444444444444444
  0.7777777777777778  0.6666666666666667  0.4444444444444444
  0.8888888888888888  0.6666666666666667  0.4444444444444444
  0.0000000000000000  0.7777777777777778  0.4444444444444444
  0.1111111111111111  0.7777777777777778  0.4444444444444444
  0.2222222222222222  0.7777777777777778  0.4444444444444444
  0.3333333333333334  0.7777777777777778  0.4444444444444444
  0.4444444444444444  0.7777777777777778  0.4444444444444444
  0.5555555555555557  0.7777777777777778  0.4444444444444444
  0.6666666666666667  0.7777777777777778  0.4444444444444444
  0.7777777777777778  0.7777777777777778  0.4444444444444444
  0.8888888888888888  0.7777777777777778  0.4444444444444444
  0.0000000000000000  0.8888888888888888  0.4444444444444444
  0.1111111111111111  0.8888888888888888  0.4444444444444444
  0.2222222222222222  0.8888888888888888  0.4444444444444444
  0.3333333333333334  0.8888888888888888  0.4444444444444444
  0.4444444444444444  0.8888888888888888  0.4444444444444444
  0.5555555555555557  0.8888888888888888  0.4444444444444444
  0.6666666666666667  0.8888888888888888  0.4444444444444444
  0.7777777777777778  0.8888888888888888  0.4444444444444444
  0.8888888888888888  0.8888888888888888  0.4444444444444444
  0.0000000000000000  0.0000000000000000  0.5555555555555557
  0.1111111111111111  0.0000000000000000  0.5555555555555557
  0.2222222222222222  0.0000000000000000  0.5555555555555557
  0.3333333333333334  0.0000000000000000  0.5555555555555557
  0.4444444444444444  0.0000000000000000  0.5555555555555557
  0.5555555555555557  0.0000000000000000  0.5555555555555557
  0.6666666666666667  0.0000000000000000  0.5555555555555557
  0.7777777777777778  0.0000000000000000  0.5555555555555557
  0.8888888888888888  0.0000000000000000  0.5555555555555557
  0.0000000000000000  0.1111111111111111  0.5555555555555557
  0.1111111111111111  0.1111111111111111  0.5555555555555557
  0.2222222222222222  0.1111111111111111  0.5555555555555557
  0.3333333333333334  0.1111111111111111  0.5555555555555557
  0.4444444444444444  0.1111111111111111  0.5555555555555557
  0.5555555555555557  0.1111111111111111  0.5555555555555557
  0.6666666666666667  0.1111111111111111  0.5555555555555557
  0.7777777777777778  0.1111111111111111  0.5555555555555557
  0.8888888888888888  0.1111111111111111  0.5555555555555557
  0.0000000000000000  0.2222222222222222  0.5555555555555557
  0.1111111111111111  0.2222222222222222  0.5555555555555557
  0.2222222222222222  0.2222222222222222  0.5555555555555557
  0.3333333333333334  0.2222222222222222  0.5555555555555557
  0.4444444444444444  0.2222222222222222  0.5555555555555557
  0.5555555555555557  0.2222222222222222  0.5555555555555557
  0.6666666666666667  0.2222222222222222  0.5555555555555557
  0.7777777777777778  0.2222222222222222  0.5555555555555557
  0.8888888888888888  0.2222222222222222  0.5555555555555557
  0.0000000000000000  0.3333333333333334  0.5555555555555557
  0.1111111111111111  0.3333333333333334  0.5555555555555557
  0.2222222222222222  0.3333333333333334  0.5555555555555557
  0.3333333333333334  0.3333333333333334  0.5555555555555557
  0.4444444444444444  0.3333333333333334  0.5555555555555557
  0.5555555555555557  0.3333333333333334  0.5555555555555557
  0.6666666666666667  0.3333333333333334  0.5555555555555557
  0.7777777777777778  0.3333333333333334  0.5555555555555557
  0.8888888888888888  0.3333333333333334  0.5555555555555557
  0.0000000000000000  0.4444444444444444  0.5555555555555557
  0.1111111111111111  0.4444444444444444  0.5555555555555557
  0.2222222222222222  0.4444444444444444  0.5555555555555557
  0.3333333333333334  0.4444444444444444  0.5555555555555557
  0.4444444444444444  0.4444444444444444  0.5555555555555557
  0.5555555555555557  0.4444444444444444  0.5555555555555557
  0.6666666666666667  0.4444444444444444  0.5555555555555557
  0.7777777777777778  0.4444444444444444  0.5555555555555557
  0.8888888888888888  0.4444444444444444  0.5555555555555557
  0.0000000000000000  0.5555555555555557  0.5555555555555557
  0.1111111111111111  0.5555555555555557  0.5555555555555557
  0.2222222222222222  0.5555555555555557  0.5555555555555557
  0.3333333333333334  0.5555555555555557  0.5555555555555557
  0.4444444444444444  0.5555555555555557  0.5555555555555557
  0.5555555555555557  0.5555555555555557  0.5555555555555557
  0.6666666666666667  0.5555555555555557  0.5555555555555557
  0.7777777777777778  0.5555555555555557  0.5555555555555557
  0.8888888888888888  0.5555555555555557  0.5555555555555557
  0.0000000000000000  0.6666666666666667  0.5555555555555557
  0.1111111111111111  0.6666666666666667  0.5555555555555557
  0.2222222222222222  0.6666666666666667  0.5555555555555557
  0.3333333333333334  0.6666666666666667  0.5555555555555557
  0.4444444444444444  0.6666666666666667  0.5555555555555557
  0.5555555555555557  0.6666666666666667  0.5555555555555557
  0.6666666666666667  0.6666666666666667  0.5555555555555557
  0.7777777777777778  0.6666666666666667  0.5555555555555557
  0.8888888888888888  0.6666666666666667  0.5555555555555557
  0.0000000000000000  0.7777777777777778  0.5555555555555557
  0.1111111111111111  0.7777777777777778  0.5555555555555557
  0.2222222222222222  0.7777777777777778  0.5555555555555557
  0.3333333333333334  0.7777777777777778  0.5555555555555557
  0.4444444444444444  0.7777777777777778  0.5555555555555557
  0.5555555555555557  0.7777777777777778  0.5555555555555557
  0.6666666666666667  0.7777777777777778  0.5555555555555557
  0.7777777777777778  0.7777777777777778  0.5555555555555557
  0.8888888888888888  0.7777777777777778  0.5555555555555557
  0.0000000000000000  0.8888888888888888  0.5555555555555557
  0.1111111111111111  0.8888888888888888  0.5555555555555557
  0.2222222222222222  0.8888888888888888  0.5555555555555557
  0.3333333333333334  0.8888888888888888  0.5555555555555557
  0.4444444444444444  0.8888888888888888  0.5555555555555557
  0.5555555555555557  0.8888888888888888  0.5555555555555557
  0.6666666666666667  0.8888888888888888  0.5555555555555557
  0.7777777777777778  0.8888888888888888  0.5555555555555557
  0.8888888888888888  0.8888888888888888  0.5555555555555557
  0.0000000000000000  0.0000000000000000  0.6666666666666667