Ba Ti O
   1.0
    27.7996678554699983    0.0000000000000000    0.0000000000000000
     0.0000000000000000   27.7996678554699983    0.0000000000000000
     0.0000000000000000    0.0000000000000000   27.7996678554699983
 343  343 1029
Direct
  0.0003597165279812  0.0000000000000000  0.0000000000000000
  0.1428571428571428  0.0000000000000000  0.0000000000000000
  0.2857142857142857  0.0000000000000000  0.0000000000000000
  0.4285714285714286  0.0000000000000000  0.0000000000000000
  0.5714285714285714  0.0000000000000000  0.0000000000000000
  0.7142857142857142  0.0000000000000000  0.0000000000000000
  0.8571428571428572  0.0000000000000000  0.0000000000000000
  0.0000000000000000  0.1428571428571428  0.0000000000000000
  0.1428571428571428  0.1428571428571428  0.0000000000000000
  0.2857142857142857  0.1428571428571428  0.0000000000000000
  0.4285714285714286  0.1428571428571428  0.0000000000000000
  0.5714285714285714  0.1428571428571428  0.0000000000000000
  0.7142857142857142  0.1428571428571428  0.0000000000000000
  0.8571428571428572  0.1428571428571428  0.0000000000000000
  0.0000000000000000  0.2857142857142857  0.0000000000000000
  0.1428571428571428  0.2857142857142857  0.0000000000000000
  0.2857142857142857  0.2857142857142857  0.0000000000000000
  0.4285714285714286  0.2857142857142857  0.0000000000000000
  0.5714285714285714  0.2857142857142857  0.0000000000000000
  0.7142857142857142  0.2857142857142857  0.0000000000000000
  0.8571428571428572  0.2857142857142857  0.0000000000000000
  0.0000000000000000  0.4285714285714286  0.0000000000000000
  0.1428571428571428  0.4285714285714286  0.0000000000000000
  0.2857142857142857  0.4285714285714286  0.0000000000000000
  0.4285714285714286  0.4285714285714286  0.0000000000000000
  0.5714285714285714  0.4285714285714286  0.0000000000000000
  0.7142857142857142  0.4285714285714286  0.0000000000000000
  0.8571428571428572  0.4285714285714286  0.0000000000000000
  0.0000000000000000  0.5714285714285714  0.0000000000000000
  0.1428571428571428  0.5714285714285714  0.0000000000000000
  0.2857142857142857  0.5714285714285714  0.0000000000000000
  0.4285714285714286  0.5714285714285714  0.0000000000000000
  0.5714285714285714  0.5714285714285714  0.0000000000000000
  0.7142857142857142  0.5714285714285714  0.0000000000000000
  0.8571428571428572  0.5714285714285714  0.0000000000000000
  0.0000000000000000  0.7142857142857142  0.0000000000000000
  0.1428571428571428  0.7142857142857142  0.0000000000000000
  0.2857142857142857  0.7142857142857142  0.0000000000000000
  0.4285714285714286  0.7142857142857142  0.0000000000000000
  0.5714285714285714  0.7142857142857142  0.0000000000000000
  0.7142857142857142  0.7142857142857142  0.0000000000000000
  0.8571428571428572  0.7142857142857142  0.0000000000000000
  0.0000000000000000  0.8571428571428572  0.0000000000000000
  0.1428571428571428  0.8571428571428572  0.0000000000000000
  0.2857142857142857  0.8571428571428572  0.0000000000000000
  0.4285714285714286  0.8571428571428572  0.0000000000000000
  0.5714285714285714  0.8571428571428572  0.0000000000000000
  0.7142857142857142  0.8571428571428572  0.0000000000000000
  0.8571428571428572  0.8571428571428572  0.0000000000000000
  0.0000000000000000  0.0000000000000000  0.1428571428571428
  0.1428571428571428  0.0000000000000000  0.1428571428571428
  0.2857142857142857  0.0000000000000000  0.1428571428571428
  0.4285714285714286  0.0000000000000000  0.1428571428571428
  0.5714285714285714  0.0000000000000000  0.1428571428571428
  0.7142857142857142  0.0000000000000000  0.1428571428571428
  0.8571428571428572  0.0000000000000000  0.1428571428571428
  0.0000000000000000  0.1428571428571428  0.1428571428571428
  0.1428571428571428  0.1428571428571428  0.1428571428571428
  0.2857142857142857  0.1428571428571428  0.1428571428571428
  0.4285714285714286  0.1428571428571428  0.1428571428571428
  0.5714285714285714  0.1428571428571428  0.1428571428571428
  0.7142857142857142  0.1428571428571428  0.1428571428571428
  0.8571428571428572  0.1428571428571428  0.1428571428571428
  0.0000000000000000  0.2857142857142857  0.1428571428571428
  0.1428571428571428  0.2857142857142857  0.1428571428571428
  0.2857142857142857  0.2857142857142857  0.1428571428571428
  0.4285714285714286  0.2857142857142857  0.1428571428571428
  0.5714285714285714  0.2857142857142857  0.1428571428571428
  0.7142857142857142  0.2857142857142857  0.1428571428571428
  0.8571428571428572  0.2857142857142857  0.1428571428571428
  0.0000000000000000  0.4285714285714286  0.1428571428571428
  0.1428571428571428  0.4285714285714286  0.1428571428571428
  0.2857142857142857  0.4285714285714286  0.1428571428571428
  0.4285714285714286  0.4285714285714286  0.1428571428571428
  0.5714285714285714  0.4285714285714286  0.1428571428571428
  0.7142857142857142  0.4285714285714286  0.1428571428571428
  0.8571428571428572  0.4285714285714286  0.1428571428571428
  0.0000000000000000  0.5714285714285714  0.1428571428571428
  0.1428571428571428  0.5714285714285714  0.1428571428571428
  0.2857142857142857  0.5714285714285714  0.1428571428571428
  0.4285714285714286  0.5714285714285714  0.1428571428571428
  0.5714285714285714  0.5714285714285714  0.1428571428571428
  0.7142857142857142  0.5714285714285714  0.1428571428571428
  0.8571428571428572  0.5714285714285714  0.1428571428571428
  0.0000000000000000  0.7142857142857142  0.1428571428571428
  0.1428571428571428  0.7142857142857142  0.1428571428571428
  0.2857142857142857  0.7142857142857142  0.1428571428571428
  0.4285714285714286  0.7142857142857142  0.1428571428571428
  0.5714285714285714  0.7142857142857142  0.1428571428571428
  0.7142857142857142  0.7142857142857142  0.1428571428571428
  0.8571428571428572  0.7142857142857142  0.1428571428571428
  0.0000000000000000  0.8571428571428572  0.1428571428571428
  0.1428571428571428  0.8571428571428572  0.1428571428571428
  0.2857142857142857  0.8571428571428572  0.1428571428571428
  0.4285714285714286  0.8571428571428572  0.1428571428571428
  0.5714285714285714  0.8571428571428572  0.1428571428571428
  0.7142857142857142  0.8571428571428572  0.1428571428571428
  0.8571428571428572  0.8571428571428572  0.1428571428571428
  0.0000000000000000  0.0000000000000000  0.2857142857142857
  0.1428571428571428  0.0000000000000000  0.2857142857142857
  0.2857142857142857  0.0000000000000000  0.2857142857142857
  0.4285714285714286  0.0000000000000000  0.2857142857142857
  0.5714285714285714  0.0000000000000000  0.2857142857142857
  0.7142857142857142  0.0000000000000000  0.2857142857142857
  0.8571428571428572  0.0000000000000000  0.2857142857142857
  0.0000000000000000  0.1428571428571428  0.2857142857142857
  0.1428571428571428  0.1428571428571428  0.2857142857142857
  0.2857142857142857  0.1428571428571428  0.2857142857142857
  0.4285714285714286  0.1428571428571428  0.2857142857142857
  0.5714285714285714  0.1428571428571428  0.2857142857142857
  0.7142857142857142  0.1428571428571428  0.2857142857142857
  0.8571428571428572  0.1428571428571428  0.2857142857142857
  0.0000000000000000  0.2857142857142857  0.2857142857142857
  0.1428571428571428  0.2857142857142857  0.2857142857142857
  0.2857142857142857  0.2857142857142857  0.2857142857142857
  0.4285714285714286  0.2857142857142857  0.2857142857142857
  0.5714285714285714  0.2857142857142857  0.2857142857142857
  0.7142857142857142  0.2857142857142857  0.2857142857142857
  0.8571428571428572  0.2857142857142857  0.2857142857142857
  0.0000000000000000  0.4285714285714286  0.2857142857142857
  0.1428571428571428  0.4285714285714286  0.2857142857142857
  0.2857142857142857  0.4285714285714286  0.2857142857142857
  0.4285714285714286  0.4285714285714286  0.2857142857142857
  0.5714285714285714  0.4285714285714286  0.2857142857142857
  0.7142857142857142  0.4285714285714286  0.2857142857142857
  0.8571428571428572  0.4285714285714286  0.2857142857142857
  0.0000000000000000  0.5714285714285714  0.2857142857142857
  0.1428571428571428  0.5714285714285714  0.2857142857142857
  0.2857142857142857  0.5714285714285714  0.2857142857142857
  0.4285714285714286  0.5714285714285714  0.2857142857142857
  0.5714285714285714  0.5714285714285714  0.2857142857142857
  0.7142857142857142  0.5714285714285714  0.2857142857142857
  0.8571428571428572  0.5714285714285714  0.2857142857142857
  0.0000000000000000  0.7142857142857142  0.2857142857142857
  0.1428571428571428  0.7142857142857142  0.2857142857142857
  0.2857142857142857  0.7142857142857142  0.2857142857142857
  0.4285714285714286  0.7142857142857142  0.2857142857142857
  0.5714285714285714  0.7142857142857142  0.2857142857142857
  0.7142857142857142  0.7142857142857142  0.2857142857142857
  0.8571428571428572  0.7142857142857142  0.2857142857142857
  0.0000000000000000  0.8571428571428572  0.2857142857142857
  0.1428571428571428  0.8571428571428572  0.2857142857142857
  0.2857142857142857  0.8571428571428572  0.2857142857142857
  0.4285714285714286  0.8571428571428572  0.2857142857142857
  0.5714285714285714  0.8571428571428572  0.2857142857142857
  0.7142857142857142  0.8571428571428572  0.2857142857142857
  0.8571428571428572  0.8571428571428572  0.2857142857142857
  0.0000000000000000  0.0000000000000000  0.4285714285714286
  0.1428571428571428  0.0000000000000000  0.4285714285714286
  0.2857142857142857  0.0000000000000000  0.4285714285714286
  0.4285714285714286  0.0000000000000000  0.4285714285714286
  0.5714285714285714  0.0000000000000000  0.4285714285714286
  0.7142857142857142  0.0000000000000000  0.4285714285714286
  0.8571428571428572  0.0000000000000000  0.4285714285714286
  0.0000000000000000  0.1428571428571428  0.4285714285714286
  0.1428571428571428  0.1428571428571428  0.4285714285714286
  0.2857142857142857  0.1428571428571428  0.4285714285714286
  0.4285714285714286  0.1428571428571428  0.4285714285714286
  0.5714285714285714  0.1428571428571428  0.4285714285714286
  0.7142857142857142  0.1428571428571428  0.4285714285714286
  0.8571428571428572  0.1428571428571428  0.4285714285714286
  0.0000000000000000  0.2857142857142857  0.4285714285714286
  0.1428571428571428  0.2857142857142857  0.4285714285714286
  0.2857142857142857  0.2857142857142857  0.4285714285714286
  0.4285714285714286  0.2857142857142857  0.4285714285714286
  0.5714285714285714  0.2857142857142857  0.4285714285714286
  0.7142857142857142  0.2857142857142857  0.4285714285714286
  0.8571428571428572  0.2857142857142857  0.4285714285714286
  0.0000000000000000  0.4285714285714286  0.4285714285714286
  0.1428571428571428  0.4285714285714286  0.4285714285714286
  0.2857142857142857  0.4285714285714286  0.4285714285714286
  0.4285714285714286  0.4285714285714286  0.4285714285714286
  0.5714285714285714  0.4285714285714286  0.4285714285714286
  0.7142857142857142  0.4285714285714286  0.4285714285714286
  0.8571428571428572  0.4285714285714286  0.4285714285714286
  0.0000000000000000  0.5714285714285714  0.4285714285714286
  0.1428571428571428  0.5714285714285714  0.4285714285714286
  0.2857142857142857  0.5714285714285714  0.4285714285714286
  0.4285714285714286  0.5714285714285714  0.4285714285714286
  0.5714285714285714  0.5714285714285714  0.4285714285714286
  0.7142857142857142  0.5714285714285714  0.4285714285714286
  0.8571428571428572  0.5714285714285714  0.4285714285714286
  0.0000000000000000  0.7142857142857142  0.4285714285714286
  0.1428571428571428  0.7142857142857142  0.4285714285714286
  0.2857142857142857  0.7142857142857142  0.4285714285714286
  0.4285714285714286  0.7142857142857142  0.4285714285714286
  0.5714285714285714  0.7142857142857142  0.4285714285714286
  0.7142857142857142  0.7142857142857142  0.4285714285714286
  0.8571428571428572  0.7142857142857142  0.4285714285714286
  0.0000000000000000  0.8571428571428572  0.4285714285714286
  0.1428571428571428  0.8571428571428572  0.4285714285714286
  0.2857142857142857  0.8571428571428572  0.4285714285714286
  0.4285714285714286  0.8571428571428572  0.4285714285714286
  0.5714285714285714  0.8571428571428572  0.4285714285714286
  0.7142857142857142  0.8571428571428572  0.4285714285714286
  0.8571428571428572  0.8571428571428572  0.4285714285714286
  0.0000000000000000  0.0000000000000000  0.5714285714285714
  0.1428571428571428  0.0000000000000000  0.5714285714285714
  0.2857142857142857  0.0000000000000000  0.5714285714285714
  0.4285714285714286  0.0000000000000000  0.5714285714285714
  0.5714285714285714  0.0000000000000000  0.5714285714285714
  0.7142857142857142  0.0000000000000000  0.5714285714285714
  0.8571428571428572  0.0000000000000000  0.5714285714285714
  0.0000000000000000  0.1428571428571428  0.5714285714285714
  0.1428571428571428  0.1428571428571428  0.5714285714285714
  0.2857142857142857  0.1428571428571428  0.5714285714285714
  0.4285714285714286  0.1428571428571428  0.5714285714285714
  0.5714285714285714  0.1428571428571428  0.5714285714285714
  0.7142857142857142  0.1428571428571428  0.5714285714285714
  0.8571428571428572  0.1428571428571428  0.5714285714285714
  0.0000000000000000  0.2857142857142857  0.5714285714285714
  0.1428571428571428  0.2857142857142857  0.5714285714285714
  0.2857142857142857  0.2857142857142857  0.5714285714285714
  0.4285714285714286  0.2857142857142857  0.5714285714285714
  0.5714285714285714  0.2857142857142857  0.5714285714285714
  0.7142857142857142  0.2857142857142857  0.5714285714285714
  0.8571428571428572  0.2857142857142857  0.5714285714285714
  0.0000000000000000  0.4285714285714286  0.5714285714285714
  0.1428571428571428  0.4285714285714286  0.5714285714285714
  0.2857142857142857  0.4285714285714286  0.5714285714285714
  0.4285714285714286  0.4285714285714286  0.5714285714285714
  0.5714285714285714  0.4285714285714286  0.5714285714285714
  0.7142857142857142  0.4285714285714286  0.5714285714285714
  0.8571428571428572  0.4285714285714286  0.5714285714285714
  0.0000000000000000  0.5714285714285714  0.5714285714285714
  0.1428571428571428  0.5714285714285714  0.5714285714285714
  0.2857142857142857  0.5714285714285714  0.5714285714285714
  0.4285714285714286  0.5714285714285714  0.5714285714285714
  0.5714285714285714  0.5714285714285714  0.5714285714285714
  0.7142857142857142  0.5714285714285714  0.5714285714285714
  0.8571428571428572  0.5714285714285714  0.5714285714285714
  0.0000000000000000  0.7142857142857142  0.5714285714285714
  0.1428571428571428  0.7142857142857142  0.5714285714285714
  0.2857142857142857  0.7142857142857142  0.5714285714285714
  0.4285714285714286  0.7142857142857142  0.5714285714285714
  0.5714285714285714  0.7142857142857142  0.5714285714285714
  0.7142857142857142  0.7142857142857142  0.5714285714285714
  0.8571428571428572  0.7142857142857142  0.5714285714285714
  0.0000000000000000  0.8571428571428572  0.5714285714285714
  0.1428571428571428  0.8571428571428572  0.5714285714285714
  0.2857142857142857  0.8571428571428572  0.5714285714285714
  0.4285714285714286  0.8571428571428572  0.5714285714285714
  0.5714285714285714  0.8571428571428572  0.5714285714285714
  0.7142857142857142  0.8571428571428572  0.5714285714285714
  0.8571428571428572  0.8571428571428572  0.5714285714285714
  0.0000000000000000  0.0000000000000000  0.7142857142857142
  0.1428571428571428  0.0000000000000000  0.7142857142857142
  0.2857142857142857  0.0000000000000000  0.7142857142857142
  0.4285714285714286  0.0000000000000000  0.7142857142857142
  0.5714285714285714  0.0000000000000000  0.7142857142857142
  0.7142857142857142  0.0000000000000000  0.7142857142857142
  0.8571428571428572  0.0000000000000000  0.7142857142857142
  0.0000000000000000  0.1428571428571428  0.7142857142857142
  0.1428571428571428  0.1428571428571428  0.7142857142857142
  0.2857142857142857  0.1428571428571428  0.7142857142857142
  0.4285714285714286  0.1428571428571428  0.7142857142857142
  0.5714285714285714  0.1428571428571428  0.7142857142857142
  0.7142857142857142  0.1428571428571428  0.7142857142857142
  0.8571428571428572  0.1428571428571428  0.7142857142857142
  0.0000000000000000  0.2857142857142857  0.7142857142857142
  0.1428571428571428  0.2857142857142857  0.7142857142857142
  0.2857142857142857  0.2857142857142857  0.7142857142857142
  0.4285714285714286  0.2857142857142857  0.7142857142857142
  0.5714285714285714  0.2857142857142857  0.7142857142857142
  0.7142857142857142  0.2857142857142857  0.7142857142857142
  0.8571428571428572  0.2857142857142857  0.7142857142857142
  0.0000000000000000  0.4285714285714286  0.7142857142857142
  0.1428571428571428  0.4285714285714286  0.7142857142857142
  0.2857142857142857  0.4285714285714286  0.7142857142857142
  0.4285714285714286  0.4285714285714286  0.7142857142857142
  0.5714285714285714  0.4285714285714286  0.7142857142857142
  0.7142857142857142  0.4285714285714286  0.7142857142857142
  0.8571428571428572  0.4285714285714286  0.7142857142857142
  0.0000000000000000  0.5714285714285714  0.7142857142857142
  0.1428571428571428  0.5714285714285714  0.7142857142857142
  0.2857142857142857  0.5714285714285714  0.7142857142857142
  0.4285714285714286  0.5714285714285714  0.7142857142857142
  0.5714285714285714  0.5714285714285714  0.7142857142857142
  0.7142857142857142  0.5714285714285714  0.7142857142857142
  0.8571428571428572  0.5714285714285714  0.7142857142857142
  0.0000000000000000  0.7142857142857142  0.7142857142857142
  0.1428571428571428  0.7142857142857142  0.7142857142857142
  0.2857142857142857  0.7142857142857142  0.7142857142857142
  0.4285714285714286  0.7142857142857142  0.7142857142857142
  0.5714285714285714  0.7142857142857142  0.7142857142857142
  0.7142857142857142  0.7142857142857142  0.7142857142857142
  0.8571428571428572  0.7142857142857142  0.7142857142857142
  0.0000000000000000  0.8571428571428572  0.7142857142857142
  0.1428571428571428  0.8571428571428572  0.7142857142857142
  0.2857142857142857  0.8571428571428572  0.7142857142857142
  0.4285714285714286  0.8571428571428572  0.7142857142857142
  0.5714285714285714  0.8571428571428572  0.7142857142857142
  0.7142857142857142  0.8571428571428572  0.7142857142857142
  0.8571428571428572  0.8571428571428572  0.7142857142857142
  0.0000000000000000  0.0000000000000000  0.8571428571428572
  0.1428571428571428  0.0000000000000000  0.8571428571428572
  0.2857142857142857  0.0000000000000000  0.8571428571428572
  0.4285714285714286  0.0000000000000000  0.8571428571428572
  0.5714285714285714  0.0000000000000000  0.8571428571428572
  0.7142857142857142  0.0000000000000000  0.8571428571428572
  0.8571428571428572  0.0000000000000000  0.8571428571428572
  0.0000000000000000  0.1428571428571428  0.8571428571428572
  0.1428571428571428  0.1428571428571428  0.8571428571428572
  0.2857142857142857  0.1428571428571428  0.8571428571428572
  0.4285714285714286  0.1428571428571428  0.8571428571428572
  0.5714285714285714  0.1428571428571428  0.8571428571428572
  0.7142857142857142  0.1428571428571428  0.8571428571428572
  0.8571428571428572  0.1428571428571428  0.8571428571428572
  0.0000000000000000  0.2857142857142857  0.8571428571428572
  0.1428571428571428  0.2857142857142857  0.8571428571428572
  0.2857142857142857  0.2857142857142857  0.8571428571428572
  0.4285714285714286  0.2857142857142857  0.8571428571428572
  0.5714285714285714  0.2857142857142857  0.8571428571428572
  0.7142857142857142  0.2857142857142857  0.8571428571428572
  0.8571428571428572  0.2857142857142857  0.8571428571428572
  0.0000000000000000  0.4285714285714286  0.8571428571428572
  0.1428571428571428  0.4285714285714286  0.8571428571428572
  0.2857142857142857  0.4285714285714286  0.8571428571428572
  0.4285714285714286  0.4285714285714286  0.8571428571428572
  0.5714285714285714  0.4285714285714286  0.8571428571428572
  0.7142857142857142  0.4285714285714286  0.8571428571428572
  0.8571428571428572  0.4285714285714286  0.8571428571428572
  0.0000000000000000  0.5714285714285714  0.8571428571428572
  0.1428571428571428  0.5714285714285714  0.8571428571428572
  0.2857142857142857  0.5714285714285714  0.8571428571428572
  0.4285714285714286  0.5714285714285714  0.8571428571428572
  0.5714285714285714  0.5714285714285714  0.8571428571428572
  0.7142857142857142  0.5714285714285714  0.8571428571428572
  0.8571428571428572  0.5714285714285714  0.8571428571428572
  0.0000000000000000  0.7142857142857142  0.8571428571428572
  0.1428571428571428  0.7142857142857142  0.8571428571428572
  0.2857142857142857  0.7142857142857142  0.8571428571428572
  0.4285714285714286  0.7142857142857142  0.8571428571428572
  0.5714285714285714  0.7142857142857142  0.8571428571428572
  0.7142857142857142  0.7142857142857142  0.8571428571428572
  0.8571428571428572  0.7142857142857142  0.8571428571428572
  0.0000000000000000  0.8571428571428572  0.8571428571428572
  0.1428571428571428  0.8571428571428572  0.8571428571428572
  0.2857142857142857  0.8571428571428572  0.8571428571428572
  0.4285714285714286  0.8571428571428572  0.8571428571428572
  0.5714285714285714  0.8571428571428572  0.8571428571428572
  0.7142857142857142  0.8571428571428572  0.8571428571428572
  0.8571428571428572  0.8571428571428572  0.8571428571428572
  0.0714285714285714  0.0714285714285714  0.0714285714285714
  0.2142857142857143  0.0714285714285714  0.0714285714285714
  0.3571428571428571  0.0714285714285714  0.0714285714285714
  0.5000000000000000  0.0714285714285714  0.0714285714285714
  0.6428571428571428  0.0714285714285714  0.0714285714285714
  0.7857142857142858  0.0714285714285714  0.0714285714285714
  0.9285714285714286  0.0714285714285714  0.0714285714285714
  0.0714285714285714  0.2142857142857143  0.0714285714285714
  0.2142857142857143  0.2142857142857143  0.0714285714285714
  0.3571428571428571  0.2142857142857143  0.0714285714285714
  0.5000000000000000  0.2142857142857143  0.0714285714285714
  0.6428571428571428  0.2142857142857143  0.0714285714285714
  0.7857142857142858  0.2142857142857143  0.0714285714285714
  0.9285714285714286  0.2142857142857143  0.0714285714285714
  0.0714285714285714  0.3571428571428571  0.0714285714285714
  0.2142857142857143  0.3571428571428571  0.0714285714285714
  0.3571428571428571  0.3571428571428571  0.0714285714285714
  0.5000000000000000  0.3571428571428571  0.0714285714285714
  0.6428571428571428  0.3571428571428571  0.0714285714285714
  0.7857142857142858  0.3571428571428571  0.0714285714285714
  0.9285714285714286  0.3571428571428571  0.0714285714285714
  0.0714285714285714  0.5000000000000000  0.0714285714285714
  0.2142857142857143  0.5000000000000000  0.0714285714285714
  0.3571428571428571  0.5000000000000000  0.0714285714285714
  0.5000000000000000  0.5000000000000000  0.0714285714285714
  0.6428571428571428  0.5000000000000000  0.0714285714285714
  0.7857142857142858  0.5000000000000000  0.0714285714285714
  0.9285714285714286  0.5000000000000000  0.0714285714285714
  0.0714285714285714  0.6428571428571428  0.0714285714285714
  0.2142857142857143  0.6428571428571428  0.0714285714285714
  0.3571428571428571  0.6428571428571428  0.0714285714285714
  0.5000000000000000  0.6428571428571428  0.0714285714285714
  0.6428571428571428  0.6428571428571428  0.0714285714285714
  0.7857142857142858  0.6428571428571428  0.0714285714285714
  0.9285714285714286  0.6428571428571428  0.0714285714285714
  0.0714285714285714  0.7857142857142858  0.0714285714285714
  0.2142857142857143  0.7857142857142858  0.0714285714285714
  0.3571428571428571  0.7857142857142858  0.0714285714285714
  0.5000000000000000  0.7857142857142858  0.0714285714285714
  0.6428571428571428  0.7857142857142858  0.0714285714285714
  0.7857142857142858  0.7857142857142858  0.0714285714285714
  0.9285714285714286  0.7857142857142858  0.0714285714285714
  0.0714285714285714  0.9285714285714286  0.0714285714285714
  0.2142857142857143  0.9285714285714286  0.0714285714285714
  0.3571428571428571  0.9285714285714286  0.0714285714285714
  0.5000000000000000  0.9285714285714286  0.0714285714285714
  0.6428571428571428  0.9285714285714286  0.0714285714285714
  0.7857142857142858  0.9285714285714286  0.0714285714285714
  0.9285714285714286  0.9285714285714286  0.0714285714285714
  0.0714285714285714  0.0714285714285714  0.2142857142857143
  0.2142857142857143  0.0714285714285714  0.2142857142857143
  0.3571428571428571  0.0714285714285714  0.2142857142857143
  0.5000000000000000  0.0714285714285714  0.2142857142857143
  0.6428571428571428  0.0714285714285714  0.2142857142857143
  0.7857142857142858  0.0714285714285714  0.2142857142857143
  0.9285714285714286  0.0714285714285714  0.2142857142857143
  0.0714285714285714  0.2142857142857143  0.2142857142857143
  0.2142857142857143  0.2142857142857143  0.2142857142857143
  0.3571428571428571  0.2142857142857143  0.2142857142857143
  0.5000000000000000  0.2142857142857143  0.2142857142857143
  0.6428571428571428  0.2142857142857143  0.2142857142857143
  0.7857142857142858  0.2142857142857143  0.2142857142857143
  0.9285714285714286  0.2142857142857143  0.2142857142857143
  0.0714285714285714  0.3571428571428571  0.2142857142857143
  0.2142857142857143  0.3571428571428571  0.2142857142857143
  0.3571428571428571  0.3571428571428571  0.2142857142857143
  0.5000000000000000  0.3571428571428571  0.2142857142857143
  0.6428571428571428  0.3571428571428571  0.2142857142857143
  0.7857142857142858  0.3571428571428571  0.2142857142857143
  0.9285714285714286  0.3571428571428571  0.2142857142857143
  0.0714285714285714  0.5000000000000000  0.2142857142857143
  0.2142857142857143  0.5000000000000000  0.2142857142857143
  0.3571428571428571  0.5000000000000000  0.2142857142857143
  0.5000000000000000  0.5000000000000000  0.2142857142857143
  0.6428571428571428  0.5000000000000000  0.2142857142857143
  0.7857142857142858  0.5000000000000000  0.2142857142857143
  0.9285714285714286  0.5000000000000000  0.2142857142857143
  0.0714285714285714  0.6428571428571428  0.2142857142857143
  0.2142857142857143  0.6428571428571428  0.2142857142857143
  0.3571428571428571  0.6428571428571428  0.2142857142857143
  0.5000000000000000  0.6428571428571428  0.2142857142857143
  0.6428571428571428  0.6428571428571428  0.2142857142857143
  0.7857142857142858  0.6428571428571428  0.2142857142857143
  0.9285714285714286  0.6428571428571428  0.2142857142857143
  0.0714285714285714  0.7857142857142858  0.2142857142857143
  0.2142857142857143  0.7857142857142858  0.2142857142857143
  0.3571428571428571  0.7857142857142858  0.2142857142857143
  0.5000000000000000  0.7857142857142858  0.2142857142857143
  0.6428571428571428  0.7857142857142858  0.2142857142857143
  0.7857142857142858  0.7857142857142858  0.2142857142857143
  0.9285714285714286  0.7857142857142858  0.2142857142857143
  0.0714285714285714  0.9285714285714286  0.2142857142857143
  0.2142857142857143  0.9285714285714286  0.2142857142857143
  0.3571428571428571  0.9285714285714286  0.2142857142857143
  0.5000000000000000  0.9285714285714286  0.2142857142857143
  0.6428571428571428  0.9285714285714286  0.2142857142857143
  0.7857142857142858  0.9285714285714286  0.2142857142857143
  0.9285714285714286  0.9285714285714286  0.2142857142857143
  0.0714285714285714  0.0714285714285714  0.3571428571428571
  0.2142857142857143  0.0714285714285714  0.3571428571428571
  0.3571428571428571  0.0714285714285714  0.3571428571428571
  0.5000000000000000  0.0714285714285714  0.3571428571428571
  0.6428571428571428  0.0714285714285714  0.3571428571428571
  0.7857142857142858  0.0714285714285714  0.3571428571428571
  0.9285714285714286  0.0714285714285714  0.3571428571428571
  0.0714285714285714  0.2142857142857143  0.3571428571428571
  0.2142857142857143  0.2142857142857143  0.3571428571428571
  0.3571428571428571  0.2142857142857143  0.3571428571428571
  0.5000000000000000  0.2142857142857143  0.3571428571428571
  0.6428571428571428  0.2142857142857143  0.3571428571428571
  0.7857142857142858  0.2142857142857143  0.3571428571428571
  0.9285714285714286  0.2142857142857143  0.3571428571428571
  0.0714285714285714  0.3571428571428571  0.3571428571428571
  0.2142857142857143  0.3571428571428571  0.3571428571428571
  0.3571428571428571  0.3571428571428571  0.3571428571428571
  0.5000000000000000  0.3571428571428571  0.3571428571428571
  0.6428571428571428  0.3571428571428571  0.3571428571428571
  0.7857142857142858  0.3571428571428571  0.3571428571428571
  0.9285714285714286  0.3571428571428571  0.3571428571428571
  0.0714285714285714  0.5000000000000000  0.3571428571428571
  0.2142857142857143  0.5000000000000000  0.3571428571428571
  0.3571428571428571  0.5000000000000000  0.3571428571428571
  0.5000000000000000  0.5000000000000000  0.3571428571428571
  0.6428571428571428  0.5000000000000000  0.3571428571428571
  0.7857142857142858  0.5000000000000000  0.3571428571428571
  0.9285714285714286  0.5000000000000000  0.3571428571428571
  0.0714285714285714  0.6428571428571428  0.3571428571428571
  0.2142857142857143  0.6428571428571428  0.3571428571428571
  0.3571428571428571  0.6428571428571428  0.3571428571428571
  0.5000000000000000  0.6428571428571428  0.3571428571428571
  0.6428571428571428  0.6428571428571428  0.3571428571428571
  0.7857142857142858  0.6428571428571428  0.3571428571428571
  0.9285714285714286  0.6428571428571428  0.3571428571428571
  0.0714285714285714  0.7857142857142858  0.3571428571428571
  0.2142857142857143  0.7857142857142858  0.3571428571428571
  0.3571428571428571  0.7857142857142858  0.3571428571428571
  0.5000000000000000  0.7857142857142858  0.3571428571428571
  0.6428571428571428  0.7857142857142858  0.3571428571428571
  0.7857142857142858  0.7857142857142858  0.3571428571428571
  0.9285714285714286  0.7857142857142858  0.3571428571428571
  0.0714285714285714  0.9285714285714286  0.3571428571428571
  0.2142857142857143  0.9285714285714286  0.3571428571428571
  0.3571428571428571  0.9285714285714286  0.3571428571428571
  0.5000000000000000  0.9285714285714286  0.3571428571428571